  20
        -33.88483514
 C         -2.2281841768        0.0862030911        0.2245328473
 C         -0.8512688978       -0.5698929064        0.3587985392
 N          0.0226722172        0.1590035134        1.0704621701
 C          1.4241124890       -0.1661499232        1.0795739399
 C          2.0833690991        0.2220634905       -0.2337488857
 O          1.4992665805        0.7528686556       -1.1515641771
 N         -2.0792446724        1.5336935019        0.3264079485
 O         -0.5947956890       -1.6809019299       -0.0930948000
 O          3.3636563577       -0.0874269336       -0.2590676844
 H         -1.5955496690        1.8765548283       -0.4994141621
 H         -2.9944446648        1.9692703688        0.3421482125
 C         -2.9088481832       -0.3941415619       -1.0608281585
 H         -2.8170692536       -0.2480351698        1.0883559587
 H         -0.2701175723        1.1086682737        1.2715622434
 H          1.5373363031       -1.2491447912        1.1914835238
 H          1.9299692269        0.3337941408        1.9051568679
 H          3.8005188601        0.1454450670       -1.1023062768
 H         -2.3533270666       -0.0388984324       -1.9276503395
 H         -2.9156301119       -1.4803245235       -1.0858959295
 H         -3.9306102192       -0.0268201242       -1.1146931485
  20
        -33.88452363
 C         -2.1799408890        0.1585249096        0.3530763224
 C         -0.8382460666       -0.5529147179        0.2023428319
 N         -0.1058086571       -0.1003803508       -0.8262249397
 C          1.2770725147       -0.4681071045       -0.9736814117
 C          2.1478207806        0.2621146256        0.0354507943
 O          1.7224142965        1.0607751519        0.8397213932
 N         -2.0265074444        1.5516006134       -0.0509363374
 O         -0.5021760177       -1.4883105321        0.9224296346
 O          3.4169969366       -0.0763823411       -0.0632048111
 H         -2.9237915710        2.0212250317       -0.0043485787
 H         -1.3935223753        2.0271356283        0.5842824933
 C         -3.2075276915       -0.5327160373       -0.5465573305
 H         -2.4860647773        0.0325017897        1.4065394132
 H         -0.4312806710        0.7704555744       -1.2311878770
 H          1.6260822443       -0.2533826614       -1.9835319593
 H          1.3824460823       -1.5397299387       -0.7771140509
 H          3.9897007749        0.3747762547        0.5887066585
 H         -4.1940752149       -0.1082341965       -0.3799453053
 H         -2.9332727410       -0.3956047253       -1.5879289939
 H         -3.2383921437       -1.5948213858       -0.3196455324
  20
        -33.88391142
 C         -2.1263419628        0.0717692873        0.4360716473
 C         -0.8163404747       -0.3224478883       -0.2508987269
 N         -0.0046276698        0.7119813960       -0.5147719811
 C          1.3593922864        0.5040920792       -0.9226164535
 C          2.2271209550        0.0491821715        0.2391552219
 O          1.8242555408       -0.1011273136        1.3698740629
 N         -2.3359575559        1.5099609003        0.3348054047
 O         -0.5495600189       -1.4840005347       -0.5439326792
 O          3.4742486910       -0.1670783983       -0.1309191801
 H         -2.6246035638        1.7407566649       -0.6110841381
 H         -3.0874860777        1.7881577246        0.9549969133
 C         -3.2816256218       -0.7805363371       -0.1009472038
 H         -1.9699923287       -0.1699551491        1.4960065544
 H         -0.2768625244        1.5951027577       -0.0987146501
 H          1.7729334298        1.4167635199       -1.3511114403
 H          1.3880572000       -0.2912214698       -1.6745292761
 H          4.0454335690       -0.4728293825        0.6015428970
 H         -4.1788142908       -0.6286483604        0.4938339931
 H         -3.4898680815       -0.5162951902       -1.1362534995
 H         -3.0026254633       -1.8301384102       -0.0655863010
  20
        -33.88384990
 C         -2.2714514672       -0.0453462743        0.1095794279
 C         -0.8944837273       -0.6099365153        0.4488904036
 N         -0.0245196297        0.3114122718        0.8812215080
 C          1.3834618641        0.0388345242        0.9845102916
 C          2.0781149373        0.1811175870       -0.3595179535
 O          1.5152459288        0.4883033703       -1.3850824427
 N         -2.4931936925        1.2031606340        0.8263701497
 O         -0.6264256041       -1.8023082519        0.3286446126
 O          3.3697496082       -0.0711572321       -0.2775468459
 H         -3.3226497627        1.6596994797        0.4645110972
 H         -2.6466110938        1.0171370046        1.8109826790
 C         -2.2799646327        0.2091307969       -1.4009577623
 H         -3.0136155596       -0.8295736434        0.3395857589
 H         -0.3498653818        1.2704149312        0.8398116567
 H          1.5153496061       -0.9977390008        1.3111024361
 H          1.8539886099        0.7048310896        1.7083474018
 H          3.8320775710        0.0069097355       -1.1357486914
 H         -1.5187726368        0.9421111517       -1.6559756913
 H         -2.0622686061       -0.7153124312       -1.9293696544
 H         -3.2529828048        0.5770760465       -1.7160289723
  20
        -33.88342856
 C         -2.2196082592       -0.2937490699       -0.0121098587
 C         -0.8548925574       -0.0194801680        0.6269970250
 N          0.0828598895       -0.9581764932        0.3965342038
 C          1.4703100654       -0.7227167905        0.7105846771
 C          2.1997665341       -0.0766116419       -0.4541601908
 O          1.6760665374        0.1881673433       -1.5126411488
 N         -3.3046191833        0.3934946834        0.6683299177
 O         -0.6498430885        0.9700714336        1.3229265936
 O          3.4661961495        0.1576694253       -0.1795051842
 H         -3.3546103947        0.0823254653        1.6328600949
 H         -3.0944684812        1.3876552347        0.6945643988
 C         -2.1534333739        0.1691256529       -1.4713615395
 H         -2.4279394607       -1.3679850758        0.0268186007
 H         -0.1129202912       -1.6649531286       -0.2968710001
 H          1.9700485629       -1.6543245576        0.9808675931
 H          1.5150673807       -0.0338226081        1.5596445784
 H          3.9500047825        0.5823130780       -0.9160037909
 H         -1.3636361951       -0.3473811016       -2.0095289862
 H         -3.1078815785       -0.0198986774       -1.9520225055
 H         -1.9491310244        1.2372505114       -1.5070400324
  20
        -33.88342663
 C         -2.2244593336       -0.2967328559       -0.0483930260
 C         -0.8740017542       -0.0538345177        0.6321156879
 N          0.0889513050       -0.9425096040        0.3227679192
 C          1.4680362938       -0.7112161953        0.6741521486
 C          2.2267886433       -0.0555244228       -0.4653530970
 O          1.7375095756        0.1964231058       -1.5434310709
 N         -3.3346618347        0.2884076965        0.6847288464
 O         -0.7007744595        0.8691950143        1.4218744697
 O          3.4785991982        0.1996884982       -0.1470225391
 H         -3.3873577704       -0.1231734363        1.6106637803
 H         -3.1508534644        1.2792078750        0.8175033988
 C         -2.1538647589        0.3156219201       -1.4513895725
 H         -2.4038409220       -1.3741722557       -0.1232450942
 H         -0.0826918038       -1.5858510815       -0.4359527201
 H          1.9626731336       -1.6462021769        0.9450424544
 H          1.4898653919       -0.0350003288        1.5341634068
 H          3.9813052778        0.6269801899       -0.8690070304
 H         -3.0947587629        0.1474859870       -1.9652671728
 H         -1.9844648229        1.3876643414       -1.3741505279
 H         -1.3404918193       -0.1189901134       -2.0258870714
  20
        -33.88340236
 C         -2.2541255484        0.1087624389        0.2592316095
 C         -0.9134919659       -0.6269229848        0.3540358320
 N          0.0671009378        0.1126926281        0.8853904714
 C          1.4309330554       -0.3345687154        0.9505030355
 C          2.2902414265        0.2072267361       -0.1775688628
 O          3.4713142113       -0.0353018174       -0.2931413250
 N         -2.0258335882        1.5483201232        0.2729686234
 O         -0.7752849590       -1.7992678678        0.0172014933
 O          1.6214387325        0.9723768295       -1.0163405763
 H         -1.6267114159        1.8325007405       -0.6171257252
 H         -2.9096303479        2.0332219577        0.3755609422
 C         -3.0414179100       -0.3992316485       -0.9535512451
 H         -2.8043184848       -0.1507076618        1.1727646792
 H         -0.1516659127        1.0888245725        1.0501498907
 H          1.4346153125       -1.4274474303        0.8714721748
 H          1.8906447075       -0.0553027334        1.9014720742
 H          2.1797678475        1.3158506423       -1.7414250632
 H         -3.0951210577       -1.4840779964       -0.9237421603
 H         -4.0489429119        0.0090597952       -0.9553681162
 H         -2.5364772252       -0.1088791086       -1.8734091701
  20
        -33.88331933
 C         -2.1350455567       -0.1817525297        0.2839486934
 C         -0.6774857063       -0.0175916250       -0.1474373817
 N         -0.0112885969        0.9365925472        0.5062456291
 C          1.3978434655        1.1442980505        0.2657041304
 C          2.0994266099       -0.2005569756        0.1217788512
 O          1.9687110042       -1.1198419458        0.8994542184
 N         -2.5723802691        1.0008530929        1.0143892939
 O         -0.1537235909       -0.7163957688       -1.0135366076
 O          2.9231775741       -0.2226748657       -0.9058670452
 H         -2.7285300764        1.7609393600        0.3592094077
 H         -3.4576387413        0.8112362870        1.4696595997
 C         -3.0044811790       -0.5443904259       -0.9252299226
 H         -2.1324606198       -1.0276028900        0.9839747013
 H         -0.5021594592        1.4239235555        1.2450726088
 H          1.8331135934        1.6711743796        1.1147933190
 H          1.5640051152        1.7109531181       -0.6556487831
 H          3.3867026226       -1.0768955829       -1.0056798406
 H         -2.5581184080       -1.3830537342       -1.4526876895
 H         -4.0084491964       -0.8148060083       -0.6079341786
 H         -3.0611626724        0.2992553174       -1.6108507776
  20
        -33.88320033
 C         -2.2885425293       -0.0482964181        0.1205839375
 C         -0.9353500449       -0.6510307098        0.4897994352
 N          0.0032364910        0.2626498780        0.7560554865
 C          1.3876562441       -0.0705611673        0.9441376042
 C          2.2384915925        0.1914832244       -0.2858103851
 O          3.4292480657       -0.0279138809       -0.3283756109
 N         -2.4271185822        1.2723435008        0.7199854698
 O         -0.7418410521       -1.8639843216        0.5172351797
 O          1.5541156305        0.6861186765       -1.2958783272
 H         -3.2480538292        1.7318938694        0.3426713180
 H         -2.5530208485        1.1900632327        1.7224566203
 C         -2.3233988862        0.0698235316       -1.4062344375
 H         -3.0625272107       -0.7678820249        0.4393385628
 H         -0.2742343332        1.2314408539        0.6502193575
 H          1.4509242054       -1.1412553333        1.1677759479
 H          1.8166713025        0.4829942626        1.7831054336
 H          2.1090870153        0.8509538313       -2.0837281463
 H         -2.1222543573       -0.8996808977       -1.8541763630
 H         -3.3010556670        0.4133743813       -1.7342193807
 H         -1.5670536662        0.7773696512       -1.7341781804
  20
        -33.88303737
 C         -2.1964170628       -0.2247413806        0.1304233343
 C         -0.6890877309       -0.3947208138        0.2823207657
 N         -0.0679120125        0.6633680444        0.8038946858
 C          1.3710635883        0.6928274944        0.9218743754
 C          1.9940230261        0.0826144621       -0.3278388731
 O          1.6896098864        0.3957784663       -1.4571086078
 N         -2.6896389760        0.7184424941        1.1256004934
 O         -0.0947203219       -1.4114189133       -0.0747504917
 O          2.9528269252       -0.7729500399       -0.0379893091
 H         -3.6513808443        0.9603635631        0.9155425503
 H         -2.6726850780        0.2950662408        2.0466116438
 C         -2.4524326882        0.3204153446       -1.2776037660
 H         -2.6436446297       -1.2311469268        0.2068721254
 H         -0.6391834446        1.4577681278        1.0620137012
 H          1.7140851212        0.1169775623        1.7868960644
 H          1.7033485917        1.7278764948        1.0031552942
 H          3.3630546470       -1.1693598830       -0.8310310713
 H         -2.0475222058        1.3249028543       -1.3619019893
 H         -1.9655771857       -0.3161605030       -2.0120205051
 H         -3.5194060041        0.3457418420       -1.4831511913
  20
        -33.88302247
 C         -2.2035448584       -0.1988040995        0.1179024184
 C         -0.7076104248       -0.4234519881        0.3099100759
 N         -0.0616904634        0.6177822591        0.8387001775
 C          1.3762065123        0.6097977206        0.9612322771
 C          1.9963812290        0.0930835032       -0.3301798430
 O          1.6192675160        0.4088798946       -1.4360463163
 N         -2.6835967406        0.7872341787        1.0772748055
 O         -0.1451118943       -1.4667104152       -0.0192553813
 O          3.0244327929       -0.6992088212       -0.1050661769
 H         -3.6305808864        1.0584412956        0.8380957259
 H         -2.7034326879        0.3872064143        2.0086066004
 C         -2.4037845742        0.3204479559       -1.3088309111
 H         -2.6923694771       -1.1846868208        0.2068453458
 H         -0.6097188509        1.4422048370        1.0478616750
 H          1.7031088119       -0.0429270378        1.7763306479
 H          1.7296219637        1.6261853912        1.1338421383
 H          3.4351239120       -1.0360676403       -0.9253655996
 H         -3.4636943304        0.3896039067       -1.5395056470
 H         -1.9504118358        1.3025544122       -1.4090953367
 H         -1.9305785838       -0.3562398178       -2.0157838309
  20
        -33.88301617
 C         -2.0857548545       -0.0784806296        0.6791341614
 C         -0.8923477352       -0.4181445879       -0.2183610986
 N         -0.0324868523        0.5937399675       -0.3871368055
 C          1.2263999474        0.4315825096       -1.0612591878
 C          2.3881843621        0.1696956851       -0.1192011489
 O          3.5239230545       -0.0101793928       -0.5007480726
 N         -2.1974979791        1.3646106139        0.8442198639
 O         -0.7496801052       -1.5238807653       -0.7329090165
 O          2.0369535233        0.1650529909        1.1495059810
 H         -2.5728757419        1.7730052479       -0.0063756390
 H         -2.8508940570        1.5726366394        1.5902882952
 C         -3.3509425465       -0.7611884860        0.1470200255
 H         -1.8384597526       -0.5079216387        1.6588366510
 H         -0.2055276997        1.4231786697        0.1689737285
 H          1.4626088677        1.3120261286       -1.6633179407
 H          1.1463673717       -0.4341535186       -1.7279398087
 H          2.7865646482       -0.0057404968        1.7534196955
 H         -4.1681139826       -0.6635385915        0.8572263492
 H         -3.6460158221       -0.3139929942       -0.8006694378
 H         -3.1490159998       -1.8153428075       -0.0225022979
  20
        -33.88300747
 C         -2.1751077549        0.0295203671        0.5917740137
 C         -0.8922154238       -0.6604973035        0.1325170857
 N         -0.1228460853        0.1105179575       -0.6437698355
 C          1.1800516985       -0.2924405593       -1.0951969047
 C          2.3059961945        0.2271251324       -0.2195004012
 O          3.4772981626        0.0176764546       -0.4459969037
 N         -1.9416613882        1.4638946054        0.7052008691
 O         -0.6364239043       -1.8288537894        0.4118702306
 O          1.8804277532        0.9313098909        0.8096792831
 H         -2.8184874674        1.9387719589        0.8868777794
 H         -1.3180801149        1.6552311426        1.4819803000
 C         -3.2614325914       -0.2383325766       -0.4532952225
 H         -2.4713925856       -0.4505419373        1.5408030813
 H         -0.3955567618        1.0854226106       -0.7017327726
 H          1.3579382652        0.0375287595       -2.1212957105
 H          1.2254836852       -1.3869784826       -1.0697308429
 H          2.6108483426        1.2570370607        1.3716532750
 H         -3.3500885195       -1.3075507159       -0.6257595747
 H         -4.2183228771        0.1416341520       -0.1046749676
 H         -3.0021030007        0.2543962540       -1.3855485228
  20
        -33.88298845
 C         -2.1922062470       -0.0485622797        0.2087092874
 C         -0.6814741754       -0.2812240435        0.1855240526
 N          0.0117448477        0.4763460956        1.0331200257
 C          1.4396322365        0.3150510103        1.1845180519
 C          2.0651238975       -0.1441562239       -0.1269859170
 O          2.7919746259       -1.1073246536       -0.2286178288
 N         -2.4877824738        1.2099475744        0.8801851543
 O         -0.1438976371       -1.1067638111       -0.5531799905
 O          1.8515142002        0.7160934347       -1.1086334607
 H         -2.2539115811        1.9821501643        0.2633943169
 H         -3.4812298154        1.2691256986        1.0707520985
 C         -2.7572571583       -0.1644207281       -1.2116751224
 H         -2.6048852522       -0.8613668188        0.8202277627
 H         -0.5059269246        1.1074690325        1.6327531582
 H          1.6801837519       -0.4294982950        1.9502386253
 H          1.8812887666        1.2785094371        1.4452268054
 H          2.2668461646        0.4346577118       -1.9454222245
 H         -2.3924451206        0.6568259930       -1.8260565149
 H         -2.4258735333       -1.0978929482       -1.6585435283
 H         -3.8439526501       -0.1424789616       -1.1939901457
  20
        -33.88298273
 C         -2.1360229326        0.5047137468       -0.0124048241
 C         -0.8286126959       -0.2955909425       -0.0054689938
 N          0.0615603316        0.0641365458        0.9389639347
 C          1.3936324853       -0.4874537753        0.9459193378
 C          2.2904309054        0.2178937229       -0.0571546845
 O          1.9196330778        1.1203212210       -0.7737544946
 N         -2.9136883648        0.2769087434       -1.2194805172
 O         -0.6386662008       -1.2343776918       -0.7724686544
 O          3.5146737227       -0.2669784452       -0.0563278225
 H         -2.3659518378        0.5431807402       -2.0313885626
 H         -3.0934767138       -0.7196443257       -1.3083136014
 C         -2.9687209164        0.1187474833        1.2134837139
 H         -1.8928383690        1.5724657731        0.0249621201
 H         -0.0756043323        0.9418996494        1.4166504225
 H          1.3347058515       -1.5391272823        0.6481322356
 H          1.8332756606       -0.4219094816        1.9414101302
 H          4.1045815865        0.1686521547       -0.7035215999
 H         -3.9166592679        0.6461233647        1.1756862350
 H         -3.1645668134       -0.9509476696        1.2034344765
 H         -2.4493712997        0.3734929086        2.1313298060
  20
        -33.88285077
 C         -2.1004823618       -0.3411442727        0.4177778984
 C         -0.6549019191       -0.0827191512       -0.0084542627
 N          0.0072834783        0.7702370575        0.7692315595
 C          1.3766514215        1.1395158424        0.4918662157
 C          2.0931072399        0.0272630305       -0.2661741341
 O          2.6512582095        0.1872557250       -1.3293009521
 N         -2.5552437782        0.7328529405        1.2912499727
 O         -0.1294204166       -0.6459923472       -0.9690891219
 O          2.1818561962       -1.0832692150        0.4462670269
 H         -2.7456479130        1.5611664697        0.7353399510
 H         -3.4256107002        0.4649018055        1.7355873105
 C         -2.9766468702       -0.5763252557       -0.8175745804
 H         -2.0691025740       -1.2645979035        1.0100914837
 H         -0.4972168817        1.1949757920        1.5383530702
 H          1.9031533376        1.2898350054        1.4362549826
 H          1.4274639480        2.0471998789       -0.1183244770
 H          2.6595043707       -1.7911885499       -0.0257029416
 H         -3.0609684690        0.3417646321       -1.3966984269
 H         -2.5197249477       -1.3341195932       -1.4482372688
 H         -3.9704139806       -0.9057068697       -0.5250427695
  20
        -33.88263586
 C         -2.1930851122       -0.1787571727        0.0694665654
 C         -0.6854687967       -0.3464236838        0.2249358866
 N         -0.0671705627        0.7145864396        0.7386126603
 C          1.3618604534        0.7275457677        0.9466711241
 C          2.0620088919       -0.0899873001       -0.1312030739
 O          2.8831143635       -0.9495380012        0.0994824401
 N         -2.6859722093        0.7652102876        1.0642906575
 O         -0.0866488746       -1.3578809290       -0.1424563825
 O          1.7738396857        0.3380045410       -1.3472384853
 H         -3.6454178878        1.0130716850        0.8507839257
 H         -2.6758615880        0.3409364562        1.9849515383
 C         -2.4529129582        0.3636677127       -1.3388793220
 H         -2.6379496274       -1.1858472889        0.1488461686
 H         -0.6451155885        1.4884150635        1.0436635411
 H          1.6319484264        0.3026241807        1.9190039831
 H          1.7229030771        1.7547313713        0.8734202235
 H          2.2363747027       -0.1690935838       -2.0409713792
 H         -1.9841693127       -0.2846650652       -2.0741562772
 H         -3.5215744838        0.4017713749       -1.5336734685
 H         -2.0374314346        1.3628849312       -1.4294187903
  20
        -33.88245035
 C         -2.1820549801       -0.4659563294        0.0796032848
 C         -0.8802482164        0.1367727325        0.6187205300
 N          0.1724425204       -0.6995004750        0.6291501149
 C          1.5081085507       -0.2442779652        0.9184805775
 C          2.3432030102       -0.0134711262       -0.3283030507
 O          3.4865629906        0.3837737791       -0.2992871273
 N         -3.3572613240        0.2796186349        0.4982680581
 O         -0.8177863056        1.2946269886        1.0218299782
 O          1.6993983145       -0.2983511226       -1.4421537392
 H         -3.4223139955        0.2770435694        1.5108714567
 H         -3.2450533849        1.2502888711        0.2183447238
 C         -2.1015643602       -0.4783931041       -1.4506052662
 H         -2.2873754638       -1.4898221322        0.4531287645
 H          0.0770697280       -1.6067560789        0.1982347175
 H          2.0339351842       -0.9539902445        1.5620316522
 H          1.4307842852        0.7107298619        1.4489816877
 H          2.2384573211       -0.1399772701       -2.2423974617
 H         -3.0334258881       -0.8634650171       -1.8521992857
 H         -1.9555634220        0.5349112115       -1.8185801469
 H         -1.2761817258       -1.0956156390       -1.7911297546
  20
        -33.88241377
 C         -2.1188136082       -0.3834046634        0.3940564184
 C         -0.6705847078       -0.2296075123       -0.0581018319
 N         -0.1148688771        0.9363566817        0.2608869783
 C          1.2232304443        1.2778090358       -0.1631882350
 C          2.0823288147        0.0252840176       -0.2839904385
 O          2.7169261868       -0.2654746564       -1.2731716980
 N         -2.3622186237        0.4631176906        1.5545771348
 O         -0.0727025992       -1.1065109421       -0.6832067489
 O          2.1755969831       -0.6276193818        0.8622704144
 H         -3.3549985191        0.4820457970        1.7585699095
 H         -1.8876780492        0.0858336797        2.3672734344
 C         -3.0184124465        0.0518970792       -0.7664275433
 H         -2.2812377095       -1.4590242197        0.5818421501
 H         -0.6761214621        1.5939765093        0.7883253758
 H          1.6815885809        1.9252311579        0.5863990428
 H          1.2173602353        1.7754136346       -1.1384102784
 H          2.7398950815       -1.4208803201        0.7943368921
 H         -4.0584762838       -0.1608984810       -0.5334489325
 H         -2.9044051522        1.1180324555       -0.9394365614
 H         -2.7430659748       -0.4883703071       -1.6684210378
  20
        -33.88235313
 C         -2.1274075779        0.3534502803        0.2385534604
 C         -0.8310867618       -0.4569970567        0.2191578979
 N          0.0803402918       -0.1230758403        1.1568754306
 C          1.4516352633       -0.5488398428        1.0152867097
 C          2.1513344771        0.2610665201       -0.0642936910
 O          1.6074506281        1.1395439279       -0.6962241190
 N         -2.1239714688        1.2603815229       -0.9087424402
 O         -0.6160728647       -1.3230660390       -0.6239309223
 O          3.4042657972       -0.1017264039       -0.2328007288
 H         -1.2589362829        1.7932874715       -0.9265827696
 H         -2.1500157146        0.7093667396       -1.7618526425
 C         -3.3406198595       -0.5676317903        0.1729029419
 H         -2.1734386209        0.9706823829        1.1413963305
 H         -0.0886961405        0.6979178945        1.7187340334
 H          1.4644938458       -1.5962516864        0.6985325709
 H          1.9866294056       -0.4527034620        1.9593554179
 H          3.8652083701        0.4023147559       -0.9330438448
 H         -3.4378004800       -1.1260153733        1.0992875143
 H         -4.2360452668        0.0229243941        0.0081829952
 H         -3.2184374931       -1.2710963942       -0.6481417318
  20
        -33.88232108
 C         -2.1416252799        0.3991914359        0.1462953159
 C         -0.6904427401       -0.0822096409        0.0633989303
 N          0.0143534396       -0.0282236479        1.2025512137
 C          1.4001247061       -0.4460669501        1.2054057158
 C          2.1106498651        0.1317558366       -0.0118631395
 O          1.9797775214        1.2750517772       -0.3902671545
 N         -2.6818188556        0.7442654117       -1.1582515645
 O         -0.2040952642       -0.5205240989       -0.9775931484
 O          2.9289329620       -0.7366682452       -0.5670530890
 H         -2.1332949498        1.4942718868       -1.5665108298
 H         -2.5800340788       -0.0570606666       -1.7754887655
 C         -2.9880148458       -0.7115418640        0.7760635341
 H         -2.1864805274        1.2976052355        0.7704955652
 H         -0.3727604092        0.4059699772        2.0246834337
 H          1.4835075738       -1.5359370802        1.1583208277
 H          1.8901300368       -0.0715404035        2.1035677402
 H          3.3983778132       -0.3809240904       -1.3469691668
 H         -2.9037289214       -1.6194325640        0.1830738597
 H         -2.6602349038       -0.9200209712        1.7893772733
 H         -4.0274988898       -0.3998024390        0.7886310414
  20
        -33.88226541
 C         -2.1979530677       -0.2413140889        0.1221295616
 C         -0.6732771310       -0.2392277690        0.0883987559
 N         -0.1164149277        0.9056439123        0.4630803118
 C          1.3152664803        1.1090080732        0.4982409718
 C          2.0645577439       -0.1222779897       -0.0128805350
 O          2.5884807395       -0.9390056593        0.7143124543
 N         -2.6659562343        0.7114613390        1.1202911340
 O         -0.0172513408       -1.2088847694       -0.2961434386
 O          2.2543990236       -0.0758790582       -1.3204134112
 H         -3.6679534785        0.8343535732        1.0278986792
 H         -2.4846533186        0.3583577519        2.0532415647
 C         -2.6959455350        0.1708514213       -1.2660597858
 H         -2.5095478125       -1.2823923646        0.3158122331
 H         -0.7335288598        1.6389937852        0.7938958246
 H          1.6408066248        1.2946399619        1.5258971517
 H          1.5798846441        1.9519083194       -0.1463025976
 H          2.7529356542       -0.8451788723       -1.6542625577
 H         -2.4283507243        1.2054423749       -1.4591290957
 H         -2.2425887394       -0.4633210457       -2.0231284286
 H         -3.7763869219        0.0663361395       -1.3211443820
  20
        -33.88215898
 C         -2.1872633630       -0.3346755041        0.0051517534
 C         -0.8480006831        0.0823482755        0.5995515384
 N          0.0969128522       -0.8750060277        0.6080464280
 C          1.4797116669       -0.5501405979        0.8543183021
 C          2.1822416619       -0.1412409706       -0.4287744160
 O          1.6359352614       -0.0937099448       -1.5081997019
 N         -3.2607485618        0.2894450819        0.7615761517
 O         -0.6508021118        1.2148685215        1.0248461326
 O          3.4502834904        0.1526475596       -0.2323167148
 H         -2.9719888845        1.2303791295        1.0158886000
 H         -4.0926905215        0.3634085014        0.1865797307
 C         -2.1394812425        0.0722193792       -1.4800007827
 H         -2.3107431162       -1.4209273313        0.0812090704
 H         -0.0904717702       -1.7388285812        0.1213202472
 H          2.0025357328       -1.3939606680        1.3060238314
 H          1.5144814323        0.3013076984        1.5408640364
 H          3.9142634172        0.4291813322       -1.0478301798
 H         -3.0440616743       -0.2552464864       -1.9864146529
 H         -2.0585403905        1.1552893467       -1.5590234370
 H         -1.2753564124       -0.3682548582       -1.9719740105
  20
        -33.88171117
 C         -2.2835666529        0.0921483713       -0.3776868742
 C         -1.0348337830       -0.4863838127        0.2999145853
 N          0.1327093770        0.0136157567       -0.1226147411
 C          1.4065529151       -0.3898493984        0.4226955545
 C          2.5233065849        0.3030338372       -0.3213734762
 O          2.3375036023        1.0970573929       -1.2169610856
 N         -3.4591196720       -0.7352987675       -0.1611384219
 O         -1.1086885952       -1.3434582202        1.1768870593
 O          3.7106614802       -0.0506047396        0.1158289679
 H         -3.2981121169       -1.6633846986       -0.5386382509
 H         -3.5942018752       -0.8514174546        0.8396591571
 C         -2.5399478887        1.4977320148        0.1737084707
 H         -2.1086838550        0.1475006321       -1.4574173257
 H          0.1767478202        0.7085302923       -0.8570964742
 H          1.5355614489       -1.4750425113        0.3452618818
 H          1.4753554666       -0.1360818374        1.4868956938
 H          4.4437336788        0.3936832044       -0.3559121262
 H         -1.7226866469        2.1668995029       -0.0764564779
 H         -3.4622733363        1.8807244955       -0.2517063264
 H         -2.6464503645        1.4569422136        1.2555080657
  20
        -33.88165431
 C         -2.2348334943        0.0483026278        0.1537087286
 C         -0.8611941140       -0.4965250416        0.5461897957
 N         -0.0732266861       -0.9507780127       -0.4467765434
 C          1.3423748600       -1.1183845505       -0.2302036659
 C          2.0459938589        0.2288770461       -0.2372419342
 O          1.4742739531        1.2787561454       -0.4319816117
 N         -2.1402810621        1.5098831932        0.1305727422
 O         -0.4808678118       -0.4578506301        1.7159108943
 O          3.3367393404        0.1238285679       -0.0063302542
 H         -1.8895437316        1.8496334270        1.0529725750
 H         -1.3976632955        1.7944041884       -0.5031980388
 C         -2.7817032192       -0.4524909081       -1.1780361261
 H         -2.9262589802       -0.2148161116        0.9620807346
 H         -0.3821270562       -0.8244746842       -1.3988142480
 H          1.7754016849       -1.7683342064       -0.9899775057
 H          1.4983194659       -1.5639975497        0.7570097969
 H          3.8008466265        0.9847408948        0.0071380664
 H         -3.8103969783       -0.1194000754       -1.2758587727
 H         -2.2222995057       -0.0337575529       -2.0108102240
 H         -2.7570187166       -1.5371519338       -1.2185730295
  20
        -33.88162938
 C         -2.1282976636        0.5685042180        0.0561641218
 C         -0.8898309128       -0.3266736126       -0.0740241349
 N          0.1218238015       -0.0266018406        0.7583314658
 C          1.3890337230       -0.7087618085        0.7012155458
 C          2.4593062406        0.0771359706       -0.0340547633
 O          3.5925648543       -0.3210173404       -0.1855862142
 N         -3.0513909689        0.3981937891       -1.0536769908
 O         -0.8502134493       -1.2698891546       -0.8588825163
 O          2.0290742624        1.2392761967       -0.4826928088
 H         -3.3342509866       -0.5768948259       -1.0987711540
 H         -2.5764158951        0.6001161697       -1.9274184703
 C         -2.8457443808        0.2473035369        1.3703419766
 H         -1.8058143853        1.6156739092        0.0568255661
 H          0.0769589271        0.8248811667        1.2971696275
 H          1.2393276726       -1.6500563701        0.1615279925
 H          1.7561329107       -0.9413273106        1.7039703650
 H          2.7168335552        1.7407038545       -0.9637125779
 H         -3.7564258815        0.8353586665        1.4269613286
 H         -3.1109658786       -0.8072313318        1.3981853995
 H         -2.2163040102        0.4745031239        2.2243798410
  20
        -33.88156560
 C         -2.1759738039       -0.0279326532        0.3311079890
 C         -0.6633164112        0.2098999099        0.2983313811
 N          0.0616162324       -0.4792364525        1.1844879331
 C          1.5013798723       -0.3292267913        1.2374638277
 C          2.0574010041        0.0081689907       -0.1407230081
 O          2.7911190585        0.9463403435       -0.3594398549
 N         -2.9155588854        1.0080119220       -0.3682596932
 O         -0.1367727185        0.9681741407       -0.5163311718
 O          1.7798962613       -0.9284613537       -1.0322703112
 H         -2.7273508034        1.9113661648        0.0536871159
 H         -2.5820104876        1.0608382832       -1.3267292118
 C         -2.4651240952       -1.3876218565       -0.3128081822
 H         -2.5153467104       -0.0312042306        1.3722935614
 H         -0.3821391974       -1.0775691382        1.8636524129
 H          1.9470603967       -1.2745917468        1.5516086910
 H          1.7941338691        0.4730554141        1.9224940462
 H          2.1610074624       -0.7345000813       -1.9095984708
 H         -2.0586262267       -1.4123690418       -1.3214187515
 H         -2.0225545657       -2.1934293338        0.2632635283
 H         -3.5399288194       -1.5291456823       -0.3667272022
  20
        -33.88145520
 C         -2.1143282669        0.3298552376        0.4698691166
 C         -0.6567949853        0.0122896236        0.1221566409
 N          0.0370608990       -0.6622565854        1.0430576987
 C          1.3898503695       -1.1059460762        0.7737297763
 C          2.0776005815       -0.1741308104       -0.2176448728
 O          2.5885175078       -0.5493214534       -1.2497092156
 N         -2.6457899906        1.4260351485       -0.3202600565
 O         -0.1460186802        0.3628366313       -0.9419127422
 O          2.2091317999        1.0526628871        0.2610650501
 H         -2.0941700543        2.2629378744       -0.1631665141
 H         -2.5537117764        1.1972771859       -1.3061126611
 C         -2.9549275278       -0.9287070752        0.2321182612
 H         -2.1742019598        0.6212007227        1.5235418195
 H         -0.3996872973       -0.9670228117        1.8993614863
 H          1.3995601049       -2.1144418296        0.3476424924
 H          1.9634287853       -1.0815836730        1.7021371420
 H          2.6796146013        1.6456213010       -0.3550574997
 H         -2.6554752133       -1.7297562377        0.9002815049
 H         -4.0002684504       -0.6902580434        0.4007316285
 H         -2.8365312429       -1.2637855888       -0.7961543968
  20
        -33.88128792
 C         -2.3953128561        0.0445690869        0.2431790584
 C         -1.0955129384       -0.7101754117        0.5160137347
 N          0.0024976937       -0.0539775612        0.1421371113
 C          1.3349702078       -0.5860822085        0.2619263259
 C          2.3414127363        0.4011123119       -0.2799912459
 O          2.0518470905        1.4943333664       -0.7098356599
 N         -2.1536443870        1.4802794601        0.2754640723
 O         -1.0821645062       -1.8376740906        1.0051433145
 O          3.5711546566       -0.0657585442       -0.2271814559
 H         -2.9779580106        1.9722343046       -0.0495785579
 H         -1.9650258681        1.7843424270        1.2237608358
 C         -2.8902541316       -0.3662870337       -1.1464302580
 H         -3.1266635752       -0.3021337727        0.9947772288
 H         -0.0986723916        0.8855929572       -0.2293997133
 H          1.4263262294       -1.5309571394       -0.2855070052
 H          1.5785375636       -0.8022987863        1.3089205920
 H          4.2357680717        0.5631665829       -0.5733335165
 H         -2.1992312391       -0.0031784489       -1.9017592198
 H         -2.9547244586       -1.4493061368       -1.2090284013
 H         -3.8741193578        0.0561989114       -1.3337493893
  20
        -33.88075346
 C         -2.2966144140       -0.0244177426        0.1218789568
 C         -0.9231949457       -0.6036695446        0.4737047870
 N          0.0133655559        0.2928140581        0.8423987727
 C          1.4030783761       -0.0740304291        0.9405091610
 C          2.1332526992        0.1985582608       -0.3620356365
 O          1.6086407451        0.6978447651       -1.3324920032
 N         -2.6491778692        1.2311977107        0.7547132195
 O         -0.7031881792       -1.8101048125        0.4372987407
 O          3.3978233758       -0.1622645415       -0.3114192304
 H         -2.5050335575        1.1883498358        1.7554351599
 H         -2.1097508822        1.9982886453        0.3708177518
 C         -2.3344469529        0.1299719344       -1.4019061943
 H         -3.0387601737       -0.7732503931        0.4235382829
 H         -0.1804993052        1.2721876439        0.6829555978
 H          1.4561936188       -1.1477276484        1.1447955165
 H          1.8921429582        0.4684298016        1.7520222149
 H          3.8805988761       -0.0014193283       -1.1467874776
 H         -1.5313880375        0.7848908168       -1.7365431364
 H         -2.2079679529       -0.8396370815       -1.8754161781
 H         -3.2889667668        0.5543749469       -1.6967878201
  20
        -33.88071191
 C         -2.1475116956       -0.5369183236        0.2156710298
 C         -0.8993066437        0.2917070923        0.4973254817
 N          0.1925155335       -0.4176024810        0.8250708918
 C          1.4931252128        0.1911129019        0.9314778950
 C          2.3601915311       -0.0314036352       -0.2940366391
 O          3.4843009391        0.4051131008       -0.4016689984
 N         -3.3168230640        0.2030068600        0.6625874805
 O         -0.8963060499        1.5143321399        0.4018363267
 O          1.7699029989       -0.7549047819       -1.2249469228
 H         -3.1663310485        1.1910994395        0.4769165422
 H         -4.1363380906       -0.0914714432        0.1434596106
 C         -2.1338604171       -0.8494038080       -1.2923631147
 H         -2.1104673917       -1.4753259045        0.7807419134
 H          0.1507832927       -1.4252682894        0.8065739972
 H          2.0301653173       -0.1795867134        1.8080311934
 H          1.3504866467        1.2708701521        1.0465573708
 H          2.3359998363       -0.8889342833       -2.0110814796
 H         -2.1605682837        0.0793611962       -1.8599975456
 H         -1.2327382374       -1.3938036825       -1.5609165393
 H         -3.0019831382       -1.4495687787       -1.5539734793
  20
        -33.88070046
 C         -2.2570320136       -0.1067738420       -0.1484766130
 C         -0.8468266347       -0.4858941642        0.3139206857
 N         -0.0159299080        0.5419705076        0.5808274599
 C          1.3726779498        0.3026559886        0.8841706517
 C          2.1860593640        0.1064451346       -0.3836549136
 O          1.7201310668        0.1757637236       -1.4987082492
 N         -3.0979034524        0.1958848187        1.0071355285
 O         -0.5436582538       -1.6525962667        0.5530868367
 O          3.4533597815       -0.1441259350       -0.1287755817
 H         -3.1390701263       -0.6068824841        1.6245600750
 H         -2.7013343760        0.9712901096        1.5281190124
 C         -2.2828327031        1.0577783656       -1.1352889731
 H         -2.6718229149       -1.0026015071       -0.6246659561
 H         -0.2436770635        1.4444887159        0.1902352951
 H          1.4463262415       -0.6180356100        1.4709397205
 H          1.7882355725        1.1298551386        1.4608361179
 H          3.9897960287       -0.2821066648       -0.9349082870
 H         -3.2620480696        1.1056363454       -1.6012077226
 H         -2.1133188114        2.0032760374       -0.6263875100
 H         -1.5310363157        0.9144321118       -1.9075512496
  20
        -33.88051445
 C         -2.2013533175        0.4865758539        0.0235789450
 C         -0.9317939298       -0.3574706371       -0.0211157658
 N          0.0973368799        0.1192655512        0.6994466390
 C          1.3881577999       -0.5225039965        0.6987046766
 C          2.4201806642        0.2949968363       -0.0524534662
 O          2.1949008902        1.3721448792       -0.5560200036
 N         -2.9019149511        0.3397202796       -1.2426477393
 O         -0.8951445489       -1.4394560542       -0.5965924442
 O          3.5970967805       -0.2961943083       -0.0772665505
 H         -2.8073393164       -0.6227177595       -1.5559062592
 H         -3.8893402040        0.5333032746       -1.1186643723
 C         -3.0127765218        0.0223937375        1.2471742784
 H         -1.9414762209        1.5451517002        0.1404525240
 H          0.0696777996        1.0762758940        1.0191826479
 H          1.2802187559       -1.4938732884        0.2061280885
 H          1.7448968488       -0.6854155079        1.7197159099
 H          4.2771216704        0.2199490217       -0.5547428241
 H         -3.2469679829       -1.0365641780        1.1529225320
 H         -2.4472999458        0.1751936052        2.1616653925
 H         -3.9406515343        0.5862421036        1.3084487377
  20
        -33.88051173
 C         -2.1984342186        0.4865524053        0.0441506068
 C         -0.9206668526       -0.3435565112       -0.0206598145
 N          0.0932349260        0.1062797947        0.7381598999
 C          1.3879566552       -0.5272923668        0.7259372447
 C          2.4063681646        0.2869380544       -0.0479721986
 O          2.1716104708        1.3596877669       -0.5562380622
 N         -2.8729746681        0.4018963037       -1.2417710436
 O         -0.8662250659       -1.3971428677       -0.6453591245
 O          3.5832559410       -0.3038229049       -0.0884429212
 H         -2.7644384028       -0.5418322355       -1.6035268867
 H         -3.8642136501        0.5814321791       -1.1273403194
 C         -3.0284643430       -0.0499189251        1.2249163705
 H         -1.9513969373        1.5394966748        0.2227202733
 H          0.0530046127        1.0475982295        1.0999974983
 H          1.2797261179       -1.5027515255        0.2417973428
 H          1.7581700029       -0.6783642284        1.7434826355
 H          4.2549344472        0.2091420293       -0.5809803487
 H         -3.9625678129        0.5019344961        1.2984023164
 H         -3.2507343361       -1.1041266116        1.0690480926
 H         -2.4819077674        0.0578767769        2.1571591979
  20
        -33.87988123
 C         -2.1331580365        0.5154674557        0.3372395374
 C         -0.9100224008       -0.2958330973       -0.0790543184
 N          0.1477375150       -0.2048363511        0.7430024678
 C          1.3935211909       -0.8684927138        0.4540935789
 C          2.4654322593        0.0683039164       -0.0727680469
 O          3.5407716681       -0.3140879798       -0.4769068995
 N         -2.7626834263        1.0430414844       -0.8640091136
 O         -0.9325737705       -1.0377054635       -1.0555083491
 O          2.1120330475        1.3358330886       -0.0254639358
 H         -2.7366510219        0.3270822464       -1.5850715519
 H         -3.7350834569        1.2629689498       -0.6785564231
 C         -3.0365819904       -0.4161830652        1.1651489582
 H         -1.8291588360        1.3682953986        0.9542553745
 H          0.1597489949        0.5077576159        1.4571694063
 H          1.2029326437       -1.6284447705       -0.3101635909
 H          1.7852405999       -1.3668129042        1.3453729664
 H          2.8009946425        1.9405545976       -0.3654917202
 H         -3.9406220279        0.1116100208        1.4597500909
 H         -3.3116151969       -1.2853700666        0.5700112300
 H         -2.5200751986       -0.7550565971        2.0585214134
  20
        -33.87977228
 C         -2.2717632854        0.0467083916        0.2458351045
 C         -0.9195019866       -0.6335354145        0.4714871159
 N         -0.0702181216       -0.6269225706       -0.5695951466
 C          1.3111004975       -1.0076119987       -0.4329922991
 C          2.2411837403        0.1810377619       -0.2706001878
 O          3.4417398758        0.0778149729       -0.1559522224
 N         -2.1361395491        1.4674465460        0.5638438002
 O         -0.6079726340       -1.0870347864        1.5719650002
 O          1.6083033923        1.3386011740       -0.2718333114
 H         -1.8513290171        1.5804261123        1.5300650947
 H         -1.4181710289        1.8841470708       -0.0212538367
 C         -2.8408302069       -0.1172928392       -1.1598682368
 H         -2.9645094379       -0.3837992620        0.9774447557
 H         -0.3477019176       -0.1790331079       -1.4295011602
 H          1.6436624412       -1.5974299067       -1.2901171708
 H          1.4040926943       -1.6231497489        0.4686193945
 H          2.2140555201        2.0980273415       -0.1596587515
 H         -2.2836111798        0.4736415724       -1.8817865271
 H         -2.8313199610       -1.1624320013       -1.4542022840
 H         -3.8657059095        0.2409172280       -1.1641417281
  20
        -33.87964708
 C         -2.2561690950       -0.1901011449       -0.2290374316
 C         -0.8794882840       -0.4716305106        0.3842990841
 N          0.0198882215        0.5255977048        0.3542831589
 C          1.3642863710        0.3542573742        0.8412161458
 C          2.3766151520        0.1386759775       -0.2686800113
 O          3.5556640919       -0.0482438928       -0.0664443185
 N         -3.2260289933        0.0370988124        0.8415586210
 O         -0.6657883588       -1.5321041595        0.9717994468
 O          1.8415315649        0.1866881875       -1.4720399301
 H         -3.2309938692       -0.7581155549        1.4710541159
 H         -2.9565754434        0.8551492847        1.3791005019
 C         -2.3010428796        0.9682700261       -1.2186820377
 H         -2.5570847970       -1.1164944986       -0.7335125561
 H         -0.1561720556        1.3259004563       -0.2340491618
 H          1.3806474189       -0.5312453132        1.4857692364
 H          1.6793344378        1.2177237103        1.4330565236
 H          2.4927572956        0.0386153290       -2.1860956687
 H         -2.1481031734        1.9188984539       -0.7140423893
 H         -1.5593794424        0.8330166079       -2.0009065586
 H         -3.2867527860        0.9925878831       -1.6735935494
  20
        -33.87963565
 C         -2.1263571229        0.2763965288        0.4682878990
 C         -0.6667278201       -0.0205445302        0.1504971926
 N          0.0593376360       -0.5469561492        1.1388882164
 C          1.4225700458       -0.9787975978        0.9069489836
 C          2.0670902979       -0.1657728957       -0.2108410434
 O          2.5799665991       -0.6596943996       -1.1907662581
 N         -2.4899583707        1.5317973519       -0.1691269922
 O         -0.1897602558        0.1802722567       -0.9653380045
 O          2.1548472823        1.1165407871        0.0962465561
 H         -2.0736965103        1.5613639986       -1.0956529719
 H         -3.4966338933        1.5879103354       -0.2765931967
 C         -2.9463973359       -0.9362305567       -0.0094799670
 H         -2.2575521426        0.4018733384        1.5486692153
 H         -0.3421497609       -0.7111498417        2.0492249496
 H          1.4592692247       -2.0339996843        0.6172255403
 H          2.0069818438       -0.8150209356        1.8139801134
 H          2.5833266101        1.6421444820       -0.6053815507
 H         -2.6485325221       -1.8355952139        0.5219319932
 H         -4.0044412483       -0.7579633225        0.1669765699
 H         -2.7859345951       -1.0921803529       -1.0751172922
  20
        -33.87960508
 C         -2.2738961351       -0.1880135986       -0.1732376597
 C         -0.8908297801       -0.5109339383        0.4016016419
 N          0.0071527539        0.4894673273        0.3951375020
 C          1.3594803948        0.3032953335        0.8532538982
 C          2.3558021006        0.1387903590       -0.2795931459
 O          3.5367194376       -0.0613851562       -0.1028779717
 N         -3.1464970195        0.2889605617        0.8979897745
 O         -0.6687670926       -1.5916386318        0.9462871635
 O          1.8054638863        0.2509438175       -1.4717228297
 H         -3.2129018460       -0.4120021423        1.6272561986
 H         -2.7579781627        1.1312995602        1.3100228973
 C         -2.2630839398        0.8180697998       -1.3199396500
 H         -2.6887714123       -1.1410998591       -0.5215236630
 H         -0.1766311886        1.3048964204       -0.1701185120
 H          1.3884758170       -0.6070999330        1.4614014395
 H          1.6813271642        1.1435151773        1.4745199243
 H          2.4476075226        0.1431034403       -2.2010972059
 H         -3.2451566273        0.8287824298       -1.7826896253
 H         -2.0613792531        1.8222419777       -0.9561264911
 H         -1.5252892675        0.5373527369       -2.0664212654
  20
        -33.87956179
 C         -2.2924783813       -0.0623182857        0.0607480510
 C         -0.9237377146       -0.6101004615        0.4801216830
 N          0.0206908034        0.3203827547        0.7124921269
 C          1.3993275120       -0.0292325650        0.9343477099
 C          2.2628601910        0.1438632140       -0.3019390215
 O          3.4403395223       -0.1350594238       -0.3365497889
 N         -2.7615565924        1.0876864111        0.8128123816
 O         -0.7140666617       -1.8122139612        0.6121651041
 O          1.6021318114        0.6427766765       -1.3276907913
 H         -2.7453568344        0.8981701295        1.8069268758
 H         -2.1917614138        1.9048999948        0.6280070427
 C         -2.2308988381        0.2754320449       -1.4311153558
 H         -3.0107768482       -0.8759237806        0.2157644406
 H         -0.1698337367        1.2789525404        0.4576534065
 H          1.4360706810       -1.0843031493        1.2252846229
 H          1.8299154364        0.5670982045        1.7431855514
 H          2.1599071489        0.7461929635       -2.1239091507
 H         -1.9672391996       -0.6110943727       -2.0013095581
 H         -3.2025839855        0.6341942649       -1.7557946306
 H         -1.4872199277        1.0461138168       -1.6195973445
  20
        -33.87951705
 C         -2.2856688930       -0.0890150557        0.0243793591
 C         -0.9095555493       -0.5963651205        0.4707680642
 N          0.0121466535        0.3621333709        0.6821028008
 C          1.3935089862        0.0480456274        0.9384788530
 C          2.2640077254        0.1409476911       -0.3020248374
 O          3.4469104050       -0.1164780604       -0.3071700813
 N         -2.8353173590        0.9765097036        0.8460340038
 O         -0.6784545277       -1.7874963078        0.6560782020
 O          1.6008604251        0.5435614163       -1.3672706522
 H         -2.8844348464        0.6889452604        1.8154407409
 H         -2.2660804657        1.8129538561        0.7885009211
 C         -2.1981347290        0.3621637239       -1.4351886502
 H         -2.9671695824       -0.9445936856        0.0956737900
 H         -0.1895898486        1.3028922928        0.3754732320
 H          1.4422715197       -0.9827018326        1.3047660866
 H          1.8090638740        0.7075732547        1.7046015444
 H          2.1602772344        0.5947691155       -2.1671911907
 H         -3.1818062454        0.6763540966       -1.7696396993
 H         -1.5077774770        1.1947904596       -1.5434309437
 H         -1.8541991054       -0.4595025750       -2.0573139950
  20
        -33.87919853
 C         -2.2097526176        0.0950598185        0.5292019014
 C         -0.9178592745       -0.6525336098        0.1777563400
 N         -0.0747782752        0.0004944399       -0.6406129416
 C          1.2339188808       -0.5030840120       -0.9625894727
 C          2.3419872380        0.1998734521       -0.2007517488
 O          3.5141128254       -0.0780881992       -0.3178332853
 N         -2.0855737636        1.5334240570        0.6702483486
 O         -0.6949625686       -1.7880144763        0.5876044773
 O          1.8963221718        1.1537592580        0.5940529869
 H         -1.3041139928        1.7752501492        1.2668648136
 H         -1.9704296591        1.9813694319       -0.2311221451
 C         -3.2605933856       -0.2377151836       -0.5324520643
 H         -2.5386499807       -0.3090247647        1.4943668052
 H         -0.2668574053        0.9647000830       -0.8729051639
 H          1.4384019158       -0.4156239174       -2.0329902073
 H          1.2596691272       -1.5642972432       -0.6922976342
 H          2.6116385126        1.5996854891        1.0894165066
 H         -2.9414358753        0.1218865540       -1.5078089451
 H         -3.4062642728       -1.3129782007       -0.5847728485
 H         -4.1996478945        0.2390908140       -0.2692961021
  20
        -33.87874889
 C         -2.1245678664        0.2774289737       -0.3336050962
 C         -0.8023879072       -0.3419526618        0.1194339488
 N          0.0323617722        0.4537003411        0.8087800084
 C          1.3920267940        0.0407219080        1.0516923996
 C          2.2386249832        0.1734128074       -0.2033888158
 O          1.8166601539        0.5895598625       -1.2589454555
 N         -3.1242391753       -0.7807732183       -0.4259662979
 O         -0.5284097483       -1.5113157575       -0.1380452227
 O          3.4811258191       -0.2166401110       -0.0089872642
 H         -3.7521734346       -0.6170288189       -1.2028616994
 H         -2.6508531291       -1.6662811739       -0.5827095976
 C         -2.6473942266        1.3879494060        0.5806547929
 H         -1.8878480611        0.7116992874       -1.3246730734
 H         -0.1705813575        1.4395822749        0.8612972750
 H          1.3948673130       -1.0163559501        1.3351597658
 H          1.8326615483        0.6281096759        1.8567386048
 H          4.0390463938       -0.1481717328       -0.8093973936
 H         -2.0572558875        2.2947503989        0.4896062740
 H         -3.6679300332        1.6171753720        0.2873035750
 H         -2.6587962568        1.0500657808        1.6118708361
  20
        -33.87872354
 C         -2.1549864815        0.1807834236       -0.3516572167
 C         -0.8179588458       -0.3545996919        0.1612629696
 N          0.0321276838        0.5345282350        0.6984507214
 C          1.3904545806        0.1573603694        0.9984193386
 C          2.2563109178        0.1625419977       -0.2497652267
 O          1.8534104213        0.4650428211       -1.3504024434
 N         -3.1791474438       -0.8221331599       -0.0776669169
 O         -0.5507439405       -1.5516528869        0.0840150711
 O          3.4961964369       -0.2003471612        0.0052275848
 H         -3.9043967605       -0.7942252683       -0.7839756129
 H         -2.7518911321       -1.7436086606       -0.0994868330
 C         -2.5851297256        1.5200969945        0.2472322818
 H         -1.9850901911        0.3142262755       -1.4389633084
 H         -0.1688322362        1.5182188425        0.6087680575
 H          1.3913215348       -0.8643288234        1.3912910417
 H          1.8180875181        0.8272995408        1.7442716048
 H          4.0661279540       -0.2127092326       -0.7891784652
 H         -3.6120916644        1.7128933041       -0.0506839917
 H         -2.5506269749        1.4766996023        1.3310423273
 H         -1.9691930306        2.3361022018       -0.1192113617
  20
        -33.87867106
 C         -2.1932139755       -0.1363719627        0.0825161634
 C         -0.6770684298       -0.2941318626        0.2294764243
 N         -0.0187175660        0.7029358144        0.8290868216
 C          1.4154028891        0.6323268783        1.0055787654
 C          2.0553892764       -0.1431486048       -0.1400481916
 O          2.8380396386       -1.0537593556        0.0170114673
 N         -2.8446753215        0.7347845146        1.0374043178
 O         -0.0794514169       -1.2741309799       -0.2165503179
 O          1.7911033417        0.4012550804       -1.3165053320
 H         -2.6168084020        0.4795904798        1.9893064246
 H         -2.6032806228        1.7047389408        0.8744265434
 C         -2.4648356356        0.3560042160       -1.3422384275
 H         -2.6168482448       -1.1414592462        0.1966223048
 H         -0.5105250267        1.5019792932        1.2013120082
 H          1.6788538594        0.1272548010        1.9404363804
 H          1.8275733995        1.6426471732        0.9935631793
 H          2.2215841745       -0.0746516055       -2.0515425158
 H         -2.0109438440        1.3319989607       -1.4976755747
 H         -2.0457926160       -0.3431821760       -2.0601753120
 H         -3.5364541602        0.4328246212       -1.4962196532
  20
        -33.87773877
 C         -2.2793340765       -0.1748722843        0.0273429711
 C         -0.8827929396       -0.2820797891        0.6436920199
 N          0.0513133298       -0.9122497045       -0.0836424876
 C          1.4252892301       -0.9766713844        0.3440598370
 C          2.3011248932        0.0739208999       -0.3159924577
 O          3.4748743542        0.2211303644       -0.0574314416
 N         -2.8793942684        1.0717994579        0.4927465180
 O         -0.6656834435        0.1304687223        1.7809902277
 O          1.6537760802        0.7970187885       -1.2059532316
 H         -3.8849373751        0.9787802360        0.5679497956
 H         -2.5121951392        1.2923701441        1.4137403468
 C         -2.3032121752       -0.2055948536       -1.5014690459
 H         -2.8198027307       -1.0619069780        0.4115947567
 H         -0.1359427304       -1.1136913271       -1.0538327027
 H          1.8505152959       -1.9619759726        0.1377719502
 H          1.4555702494       -0.8053077638        1.4249256558
 H          2.2127633823        1.4816040192       -1.6234297769
 H         -3.3016794381        0.0657325723       -1.8331102041
 H         -1.6065143389        0.5244007386       -1.9030585816
 H         -2.0788060191       -1.1973282913       -1.8826529350
  20
        -33.87704252
 C         -2.1871676832        0.0464943084        0.2292861888
 C         -0.6687652866        0.1603417245        0.3521515184
 N         -0.0130620159       -0.9085108652        0.8100569587
 C          1.4214461358       -0.8559301898        0.9950021098
 C          2.0685663661        0.0093584945       -0.0796845966
 O          2.8816257249        0.8756792456        0.1522754162
 N         -2.6662263311        1.0635935902       -0.7011769274
 O         -0.0729767071        1.1988750280        0.0611516305
 O          1.7468113716       -0.3882822538       -1.2977327515
 H         -3.4793456647        1.5410786995       -0.3348817838
 H         -1.9342361855        1.7543766213       -0.8421082296
 C         -2.6445735768       -1.3358608839       -0.2509139938
 H         -2.5736403189        0.2148164880        1.2494400206
 H         -0.4992261960       -1.7623835164        1.0318035026
 H          1.8306402960       -1.8628255630        0.9036544822
 H          1.6840341902       -0.4302048323        1.9688055073
 H          2.1677445687        0.1505008723       -1.9941685059
 H         -2.0766242136       -1.6349536188       -1.1263639069
 H         -2.5491598104       -2.0840124313        0.5296845474
 H         -3.6910245509       -1.2668460724       -0.5329129214
  20
        -33.87604336
 C         -2.1961930511        0.2997093372        0.2488525919
 C         -0.9460769335       -0.5816618687        0.2533984455
 N          0.0974965799       -0.0389143469        0.9151114142
 C          1.4353798538       -0.5591134219        0.7780430766
 C          2.2801809982        0.3579999225       -0.0849258929
 O          1.8846441513        1.4182980620       -0.5175204758
 N         -2.0316237324        1.2463818855       -0.8523655146
 O         -0.8856535852       -1.6790668719       -0.2787986377
 O          3.4883447039       -0.1177605619       -0.2934418746
 H         -2.7861776715        1.9222168211       -0.8412385869
 H         -1.1517618347        1.7454969580       -0.7812669066
 C         -3.4489280632       -0.5384524003        0.0209835540
 H         -2.2651951235        0.7975366822        1.2348110918
 H          0.0312240978        0.9194718486        1.2269518009
 H          1.3688597572       -1.5412959475        0.3010841979
 H          1.9161863466       -0.6726789381        1.7533114121
 H          4.0447613172        0.4647994406       -0.8487182252
 H         -4.3220441094        0.1033671640       -0.0507512219
 H         -3.3393650595       -1.0986956424       -0.9029646164
 H         -3.5818326178       -1.2385553051        0.8408233777
