  20
        -33.88483514
 C         -2.2281841768        0.0862030911        0.2245328473
 C         -0.8512688978       -0.5698929064        0.3587985392
 N          0.0226722172        0.1590035134        1.0704621701
 C          1.4241124890       -0.1661499232        1.0795739399
 C          2.0833690991        0.2220634905       -0.2337488857
 O          1.4992665805        0.7528686556       -1.1515641771
 N         -2.0792446724        1.5336935019        0.3264079485
 O         -0.5947956890       -1.6809019299       -0.0930948000
 O          3.3636563577       -0.0874269336       -0.2590676844
 H         -1.5955496690        1.8765548283       -0.4994141621
 H         -2.9944446648        1.9692703688        0.3421482125
 C         -2.9088481832       -0.3941415619       -1.0608281585
 H         -2.8170692536       -0.2480351698        1.0883559587
 H         -0.2701175723        1.1086682737        1.2715622434
 H          1.5373363031       -1.2491447912        1.1914835238
 H          1.9299692269        0.3337941408        1.9051568679
 H          3.8005188601        0.1454450670       -1.1023062768
 H         -2.3533270666       -0.0388984324       -1.9276503395
 H         -2.9156301119       -1.4803245235       -1.0858959295
 H         -3.9306102192       -0.0268201242       -1.1146931485
