  20
  -33.884835140000000        6.1306357160895247E-002 !
 C         -2.2281841768        0.0862030911        0.2245328473
 C         -0.8512688978       -0.5698929064        0.3587985392
 N          0.0226722172        0.1590035134        1.0704621701
 C          1.4241124890       -0.1661499232        1.0795739399
 C          2.0833690991        0.2220634905       -0.2337488857
 O          1.4992665805        0.7528686556       -1.1515641771
 N         -2.0792446724        1.5336935019        0.3264079485
 O         -0.5947956890       -1.6809019299       -0.0930948000
 O          3.3636563577       -0.0874269336       -0.2590676844
 H         -1.5955496690        1.8765548283       -0.4994141621
 H         -2.9944446648        1.9692703688        0.3421482125
 C         -2.9088481832       -0.3941415619       -1.0608281585
 H         -2.8170692536       -0.2480351698        1.0883559587
 H         -0.2701175723        1.1086682737        1.2715622434
 H          1.5373363031       -1.2491447912        1.1914835238
 H          1.9299692269        0.3337941408        1.9051568679
 H          3.8005188601        0.1454450670       -1.1023062768
 H         -2.3533270666       -0.0388984324       -1.9276503395
 H         -2.9156301119       -1.4803245235       -1.0858959295
 H         -3.9306102192       -0.0268201242       -1.1146931485
  20
  -33.884828470000002        6.0875170590029788E-002 !
 C         -2.2295357258        0.0838484774        0.2235483528
 C         -0.8514135089       -0.5692028565        0.3603074735
 N          0.0227460595        0.1631318805        1.0677560241
 C          1.4240886420       -0.1620202625        1.0790951453
 C          2.0837552322        0.2204832547       -0.2357113615
 O          1.4996781333        0.7470177741       -1.1559981473
 N         -2.0881448289        1.5309362171        0.3390888016
 O         -0.5942419914       -1.6819061075       -0.0872560702
 O          3.3642022676       -0.0886806107       -0.2595618010
 H         -1.6070503352        1.8839058542       -0.4839905554
 H         -3.0057141887        1.9613579239        0.3591687679
 C         -2.8998533161       -0.3877867498       -1.0706513849
 H         -2.8227479720       -0.2614486543        1.0799574977
 H         -0.2708547862        1.1123230348        1.2695558159
 H          1.5373286584       -1.2445507136        1.1957835890
 H          1.9292345438        0.3416319445        1.9028366914
 H          3.8008694769        0.1409788239       -1.1038278011
 H         -3.9218759987       -0.0219524667       -1.1292190020
 H         -2.3386247513       -0.0246326682       -1.9304977246
 H         -2.9044948825       -1.4737123747       -1.1041915277
  20
  -33.884827770000001        6.0830094832603543E-002 !
 C         -2.2284413766        0.0825743713        0.2228206432
 C         -0.8488735238       -0.5672647854        0.3603479312
 N          0.0221499869        0.1652702249        1.0716077469
 C          1.4243447857       -0.1565644098        1.0827259854
 C          2.0809786551        0.2193169235       -0.2355858012
 O          1.4962687756        0.7469060428       -1.1548566864
 N         -2.0908717858        1.5297976388        0.3414479553
 O         -0.5878316279       -1.6779716765       -0.0900088760
 O          3.3595802237       -0.0969969128       -0.2636258342
 H         -1.6089439951        1.8855013283       -0.4799714240
 H         -3.0095293368        1.9579631733        0.3604808294
 C         -2.8953349902       -0.3879597333       -1.0735289249
 H         -2.8223345573       -0.2659111576        1.0774601121
 H         -0.2740177233        1.1132638235        1.2751867597
 H          1.5410702744       -1.2379475576        1.2060387776
 H          1.9294797173        0.3537965737        1.9022934244
 H          3.7939645203        0.1277283767       -1.1103457502
 H         -2.8978966283       -1.4738392410       -1.1089456302
 H         -3.9178943051       -0.0238452255       -1.1334969857
 H         -2.3330331356       -0.0223389505       -1.9316288257
  20
  -33.884827520000002        6.0814004437944880E-002 !
 C         -2.2298435317        0.0859126805        0.2239724473
 C         -0.8539049545       -0.5718915961        0.3607311119
 N          0.0233980792        0.1591625555        1.0656522012
 C          1.4240610923       -0.1688042992        1.0757346117
 C          2.0855351102        0.2216099923       -0.2357654489
 O          1.5005970663        0.7458951241       -1.1567840105
 N         -2.0826307305        1.5328443925        0.3346562280
 O         -0.6012398758       -1.6866043610       -0.0844075531
 O          3.3685398109       -0.0771560205       -0.2558167346
 H         -2.9984398223        1.9670576001        0.3540448435
 H         -1.6006697950        1.8812030187       -0.4899050530
 C         -2.9040570668       -0.3870757568       -1.0676808136
 H         -2.8232170826       -0.2543228301        1.0822977477
 H         -0.2673443712        1.1097138209        1.2653569452
 H          1.5343691690       -1.2524707618        1.1846368734
 H          1.9298211317        0.3276121732        1.9035402247
 H          3.8067278256        0.1591298897       -1.0975374007
 H         -2.3424474793       -0.0296095205       -1.9296488052
 H         -2.9136854096       -1.4730780968       -1.0972834443
 H         -3.9245213531       -0.0168459994       -1.1260924489
  20
  -33.884825950000000        6.0713054005554407E-002 !
 C         -2.2295124128        0.0864505355        0.2240557019
 C         -0.8538795985       -0.5720130130        0.3605546572
 N          0.0234556231        0.1583145628        1.0663083101
 C          1.4240796371       -0.1696924478        1.0758326371
 C          2.0854821649        0.2221253708       -0.2352741095
 O          1.5006472637        0.7478029363       -1.1555760919
 N         -2.0808076201        1.5334718401        0.3317298810
 O         -0.6012782241       -1.6863077261       -0.0856198073
 O          3.3682629569       -0.0775068127       -0.2559659351
 H         -2.9962113807        1.9687247801        0.3495374714
 H         -1.5979104364        1.8794858283       -0.4932621816
 C         -2.9060799516       -0.3887371349       -1.0655060432
 H         -2.8219488623       -0.2512645610        1.0839679943
 H         -0.2669808203        1.1089607176        1.2662127713
 H          1.5342182511       -1.2534680220        1.1835540048
 H          1.9299116737        0.3257642808        1.9041155903
 H          3.8063199317        0.1592039911       -1.0976118902
 H         -3.9263824928       -0.0178531052       -1.1229639559
 H         -2.3456421271       -0.0334352705       -1.9291320328
 H         -2.9164415987       -1.4748114827       -1.0928502826
  20
  -33.884523629999997        4.4090540936719096E-002 !
 C         -2.1799408890        0.1585249096        0.3530763224
 C         -0.8382460666       -0.5529147179        0.2023428319
 N         -0.1058086571       -0.1003803508       -0.8262249397
 C          1.2770725147       -0.4681071045       -0.9736814117
 C          2.1478207806        0.2621146256        0.0354507943
 O          1.7224142965        1.0607751519        0.8397213932
 N         -2.0265074444        1.5516006134       -0.0509363374
 O         -0.5021760177       -1.4883105321        0.9224296346
 O          3.4169969366       -0.0763823411       -0.0632048111
 H         -2.9237915710        2.0212250317       -0.0043485787
 H         -1.3935223753        2.0271356283        0.5842824933
 C         -3.2075276915       -0.5327160373       -0.5465573305
 H         -2.4860647773        0.0325017897        1.4065394132
 H         -0.4312806710        0.7704555744       -1.2311878770
 H          1.6260822443       -0.2533826614       -1.9835319593
 H          1.3824460823       -1.5397299387       -0.7771140509
 H          3.9897007749        0.3747762547        0.5887066585
 H         -4.1940752149       -0.1082341965       -0.3799453053
 H         -2.9332727410       -0.3956047253       -1.5879289939
 H         -3.2383921437       -1.5948213858       -0.3196455324
  20
  -33.884506230000000        4.3286148076643535E-002 !
 C         -2.1821912988        0.1551253572        0.3550261697
 C         -0.8381029414       -0.5514684178        0.2037032299
 N         -0.1077429087       -0.0946988567       -0.8243385192
 C          1.2745547512       -0.4621577774       -0.9768216290
 C          2.1489541368        0.2626013789        0.0330471426
 O          1.7294404001        1.0686361290        0.8330286732
 N         -2.0317474768        1.5501449759       -0.0430889896
 O         -0.4985256306       -1.4868036857        0.9222232297
 O          3.4147665095       -0.0900881422       -0.0598525680
 H         -2.9305061288        2.0169413946        0.0026714715
 H         -1.4017478581        2.0253069332        0.5953458353
 C         -3.2051341973       -0.5349947327       -0.5507804887
 H         -2.4905930652        0.0237252005        1.4071589963
 H         -0.4350243247        0.7767046320       -1.2264416650
 H          1.6205335753       -0.2418162698       -1.9865287062
 H          1.3798221556       -1.5348952457       -0.7866219814
 H          3.9892755310        0.3568067818        0.5931504407
 H         -3.2344890647       -1.5980914042       -0.3283829362
 H         -4.1931660737       -0.1133419050       -0.3858907014
 H         -2.9275598842       -0.3931491751       -1.5906577221
  20
  -33.884506190000003        4.3284315908449396E-002 !
 C         -2.1819996098        0.1546897360        0.3556609093
 C         -0.8375213976       -0.5507597157        0.2022239638
 N         -0.1077706444       -0.0911886530       -0.8249673966
 C          1.2744332651       -0.4581878373       -0.9792671832
 C          2.1489682098        0.2618129552        0.0338983975
 O          1.7299697993        1.0656846069        0.8363498617
 N         -2.0333970267        1.5502717282       -0.0411616859
 O         -0.4973019412       -1.4877706722        0.9183033464
 O          3.4144286967       -0.0919811856       -0.0595928802
 H         -2.9328173835        2.0157778089        0.0048809014
 H         -1.4041774430        2.0257291191        0.5978295385
 C         -3.2052989662       -0.5355507149       -0.5496781069
 H         -2.4891426638        0.0219442272        1.4079875120
 H         -0.4357896495        0.7808517913       -1.2250920970
 H          1.6202998801       -0.2329951903       -1.9879356616
 H          1.3797474616       -1.5318236020       -0.7942071393
 H          3.9892065551        0.3523308152        0.5949430290
 H         -2.9290262657       -0.3924173196       -1.5897281892
 H         -3.2332686953       -1.5989021615       -0.3283159583
 H         -4.1936145368       -0.1151363558       -0.3832958987
  20
  -33.883911419999997        2.3067110251122791E-002 !
 C         -2.1263419628        0.0717692873        0.4360716473
 C         -0.8163404747       -0.3224478883       -0.2508987269
 N         -0.0046276698        0.7119813960       -0.5147719811
 C          1.3593922864        0.5040920792       -0.9226164535
 C          2.2271209550        0.0491821715        0.2391552219
 O          1.8242555408       -0.1011273136        1.3698740629
 N         -2.3359575559        1.5099609003        0.3348054047
 O         -0.5495600189       -1.4840005347       -0.5439326792
 O          3.4742486910       -0.1670783983       -0.1309191801
 H         -2.6246035638        1.7407566649       -0.6110841381
 H         -3.0874860777        1.7881577246        0.9549969133
 C         -3.2816256218       -0.7805363371       -0.1009472038
 H         -1.9699923287       -0.1699551491        1.4960065544
 H         -0.2768625244        1.5951027577       -0.0987146501
 H          1.7729334298        1.4167635199       -1.3511114403
 H          1.3880572000       -0.2912214698       -1.6745292761
 H          4.0454335690       -0.4728293825        0.6015428970
 H         -4.1788142908       -0.6286483604        0.4938339931
 H         -3.4898680815       -0.5162951902       -1.1362534995
 H         -3.0026254633       -1.8301384102       -0.0655863010
  20
  -33.883905650000003        2.2926696557220846E-002 !
 C         -2.1271732522        0.0763274386        0.4353404196
 C         -0.8177618514       -0.3246633533       -0.2483641251
 N         -0.0029277644        0.7057084907       -0.5191895384
 C          1.3595663887        0.4891253061       -0.9282532715
 C          2.2298808842        0.0542260700        0.2390622596
 O          1.8299988732       -0.0684665455        1.3742046820
 N         -2.3398827996        1.5124490796        0.3145777299
 O         -0.5534541464       -1.4886106356       -0.5339902649
 O          3.4741973473       -0.1780533732       -0.1304892960
 H         -2.6236870846        1.7308480983       -0.6356363250
 H         -3.0955387983        1.7960937241        0.9272793667
 C         -3.2819110202       -0.7860895444       -0.0865783065
 H         -1.9683809632       -0.1499209240        1.4983799639
 H         -0.2691334159        1.5926606010       -0.1076460422
 H          1.7726335653        1.3930298257       -1.3754169915
 H          1.3840094274       -0.3200596326       -1.6653303109
 H          4.0459467755       -0.4738790778        0.6058667445
 H         -3.4940854110       -0.5363685734       -1.1246555241
 H         -3.0003890886       -1.8344945342       -0.0380733835
 H         -4.1775355299       -0.6281724616        0.5089938820
  20
  -33.883905130000002        2.2914084353278397E-002 !
 C         -2.1256216396        0.0701400251        0.4362207859
 C         -0.8147558747       -0.3173327442       -0.2524138042
 N         -0.0031434627        0.7191919003       -0.5093217085
 C          1.3603073364        0.5113319482       -0.9198963387
 C          2.2267251410        0.0483626234        0.2395720329
 O          1.8252073409       -0.0921266432        1.3720704610
 N         -2.3428513541        1.5070864997        0.3351174495
 O         -0.5465369689       -1.4764736307       -0.5535253160
 O          3.4695628008       -0.1860694150       -0.1335307990
 H         -2.6268118583        1.7376247810       -0.6121743972
 H         -3.0997626503        1.7798551829        0.9512021553
 C         -3.2774649195       -0.7886993723       -0.0979032723
 H         -1.9664701696       -0.1701994877        1.4961055360
 H         -0.2718739460        1.5995957514       -0.0856148580
 H          1.7749790399        1.4256333650       -1.3437711010
 H          1.3869618766       -0.2797801644       -1.6761778524
 H          4.0388150332       -0.4988026852        0.5977268797
 H         -2.9925922186       -1.8367481853       -0.0634331517
 H         -4.1739016292       -0.6417587793        0.4992650852
 H         -3.4899438117       -0.5256517915       -1.1326192581
  20
  -33.883849900000001        2.1613273885246129E-002 !
 C         -2.2714514672       -0.0453462743        0.1095794279
 C         -0.8944837273       -0.6099365153        0.4488904036
 N         -0.0245196297        0.3114122718        0.8812215080
 C          1.3834618641        0.0388345242        0.9845102916
 C          2.0781149373        0.1811175870       -0.3595179535
 O          1.5152459288        0.4883033703       -1.3850824427
 N         -2.4931936925        1.2031606340        0.8263701497
 O         -0.6264256041       -1.8023082519        0.3286446126
 O          3.3697496082       -0.0711572321       -0.2775468459
 H         -3.3226497627        1.6596994797        0.4645110972
 H         -2.6466110938        1.0171370046        1.8109826790
 C         -2.2799646327        0.2091307969       -1.4009577623
 H         -3.0136155596       -0.8295736434        0.3395857589
 H         -0.3498653818        1.2704149312        0.8398116567
 H          1.5153496061       -0.9977390008        1.3111024361
 H          1.8539886099        0.7048310896        1.7083474018
 H          3.8320775710        0.0069097355       -1.1357486914
 H         -1.5187726368        0.9421111517       -1.6559756913
 H         -2.0622686061       -0.7153124312       -1.9293696544
 H         -3.2529828048        0.5770760465       -1.7160289723
  20
  -33.883849599999998        2.1606413657662304E-002 !
 C         -2.2739071020       -0.0441255962        0.1115832663
 C         -0.8987810716       -0.6129754585        0.4511027781
 N         -0.0237270084        0.3069465522        0.8759027201
 C          1.3830616433        0.0290679767        0.9800971335
 C          2.0821580932        0.1849669565       -0.3600134677
 O          1.5228011302        0.5033364289       -1.3841088224
 N         -2.4882410248        1.2098291010        0.8210771893
 O         -0.6365062191       -1.8073214036        0.3373421935
 O          3.3732890387       -0.0693279478       -0.2765973750
 H         -3.3162385220        1.6681274433        0.4581010477
 H         -2.6405333945        1.0305462146        1.8071115122
 C         -2.2846281140        0.2010753479       -1.4004749103
 H         -3.0190457406       -0.8235686524        0.3481534192
 H         -0.3447771921        1.2671919079        0.8300784721
 H          1.5098492446       -1.0117162096        1.2952596893
 H          1.8537393172        0.6848602681        1.7132201490
 H          3.8383554341        0.0168594031       -1.1325105865
 H         -3.2565565826        0.5718739515       -1.7155609272
 H         -1.5204140070        0.9287432098       -1.6618120054
 H         -2.0730328420       -0.7278937387       -1.9234461496
  20
  -33.883849349999998        2.1600698464814640E-002 !
 C         -2.2728254886       -0.0453058495        0.1100243013
 C         -0.8966115318       -0.6112996778        0.4498340772
 N         -0.0243425419        0.3100561368        0.8773377752
 C          1.3830157265        0.0350781824        0.9819531104
 C          2.0804113792        0.1827598227       -0.3600368825
 O          1.5196826574        0.4945136521       -1.3854359402
 N         -2.4927537279        1.2043421781        0.8253873951
 O         -0.6309823913       -1.8046877951        0.3338751578
 O          3.3717619437       -0.0704990120       -0.2765450039
 H         -3.3225276686        1.6608265406        0.4641590400
 H         -2.6448464229        1.0196922777        1.8104665789
 C         -2.2813424197        0.2077005405       -1.4007367896
 H         -3.0159042434       -0.8284041858        0.3409423069
 H         -0.3477287211        1.2695530398        0.8334873986
 H          1.5122180415       -1.0032835153        1.3040776312
 H          1.8533084661        0.6967945824        1.7098925290
 H          3.8359124313        0.0112555826       -1.1333634525
 H         -2.0647060438       -0.7176674291       -1.9280417473
 H         -3.2540985158        0.5761959969       -1.7160351867
 H         -1.5194913652        0.9397597177       -1.6565823045
  20
  -33.883428559999999        1.3838407010306293E-002 !
 C         -2.2196082592       -0.2937490699       -0.0121098587
 C         -0.8548925574       -0.0194801680        0.6269970250
 N          0.0828598895       -0.9581764932        0.3965342038
 C          1.4703100654       -0.7227167905        0.7105846771
 C          2.1997665341       -0.0766116419       -0.4541601908
 O          1.6760665374        0.1881673433       -1.5126411488
 N         -3.3046191833        0.3934946834        0.6683299177
 O         -0.6498430885        0.9700714336        1.3229265936
 O          3.4661961495        0.1576694253       -0.1795051842
 H         -3.3546103947        0.0823254653        1.6328600949
 H         -3.0944684812        1.3876552347        0.6945643988
 C         -2.1534333739        0.1691256529       -1.4713615395
 H         -2.4279394607       -1.3679850758        0.0268186007
 H         -0.1129202912       -1.6649531286       -0.2968710001
 H          1.9700485629       -1.6543245576        0.9808675931
 H          1.5150673807       -0.0338226081        1.5596445784
 H          3.9500047825        0.5823130780       -0.9160037909
 H         -1.3636361951       -0.3473811016       -2.0095289862
 H         -3.1078815785       -0.0198986774       -1.9520225055
 H         -1.9491310244        1.2372505114       -1.5070400324
  20
  -33.883426630000002        1.3810173450439299E-002 !
 C         -2.2244593336       -0.2967328559       -0.0483930260
 C         -0.8740017542       -0.0538345177        0.6321156879
 N          0.0889513050       -0.9425096040        0.3227679192
 C          1.4680362938       -0.7112161953        0.6741521486
 C          2.2267886433       -0.0555244228       -0.4653530970
 O          1.7375095756        0.1964231058       -1.5434310709
 N         -3.3346618347        0.2884076965        0.6847288464
 O         -0.7007744595        0.8691950143        1.4218744697
 O          3.4785991982        0.1996884982       -0.1470225391
 H         -3.3873577704       -0.1231734363        1.6106637803
 H         -3.1508534644        1.2792078750        0.8175033988
 C         -2.1538647589        0.3156219201       -1.4513895725
 H         -2.4038409220       -1.3741722557       -0.1232450942
 H         -0.0826918038       -1.5858510815       -0.4359527201
 H          1.9626731336       -1.6462021769        0.9450424544
 H          1.4898653919       -0.0350003288        1.5341634068
 H          3.9813052778        0.6269801899       -0.8690070304
 H         -3.0947587629        0.1474859870       -1.9652671728
 H         -1.9844648229        1.3876643414       -1.3741505279
 H         -1.3404918193       -0.1189901134       -2.0258870714
  20
  -33.883419269999997        1.3703033245036231E-002 !
 C         -2.2237303775       -0.2959936948       -0.0442190285
 C         -0.8715525745       -0.0505494041        0.6320239677
 N          0.0880863064       -0.9458648035        0.3312780300
 C          1.4683062732       -0.7140687878        0.6780037645
 C          2.2229095280       -0.0582736676       -0.4643076760
 O          1.7295537533        0.1938045884       -1.5404901923
 N         -3.3304591252        0.3027510733        0.6831300024
 O         -0.6941528783        0.8803853538        1.4115255673
 O          3.4757421267        0.1976350549       -0.1504722011
 H         -3.3850723404       -0.0989401277        1.6133061653
 H         -3.1412224675        1.2939172287        0.8055114544
 C         -2.1524061771        0.2990290054       -1.4546392178
 H         -2.4078565448       -1.3734622613       -0.1059271053
 H         -0.0864543634       -1.5962828746       -0.4207109581
 H          1.9638692692       -1.6489796394        0.9472792277
 H          1.4932191764       -0.0374067295        1.5375505623
 H          3.9755558974        0.6252608088       -0.8742914117
 H         -1.9789434867        1.3712508678       -1.3905456503
 H         -1.3413164577       -0.1453236336       -2.0248476855
 H         -3.0944908364        0.1282726388       -1.9654300380
  20
  -33.883402359999998        1.3460010957648134E-002 !
 C         -2.2541255484        0.1087624389        0.2592316095
 C         -0.9134919659       -0.6269229848        0.3540358320
 N          0.0671009378        0.1126926281        0.8853904714
 C          1.4309330554       -0.3345687154        0.9505030355
 C          2.2902414265        0.2072267361       -0.1775688628
 O          3.4713142113       -0.0353018174       -0.2931413250
 N         -2.0258335882        1.5483201232        0.2729686234
 O         -0.7752849590       -1.7992678678        0.0172014933
 O          1.6214387325        0.9723768295       -1.0163405763
 H         -1.6267114159        1.8325007405       -0.6171257252
 H         -2.9096303479        2.0332219577        0.3755609422
 C         -3.0414179100       -0.3992316485       -0.9535512451
 H         -2.8043184848       -0.1507076618        1.1727646792
 H         -0.1516659127        1.0888245725        1.0501498907
 H          1.4346153125       -1.4274474303        0.8714721748
 H          1.8906447075       -0.0553027334        1.9014720742
 H          2.1797678475        1.3158506423       -1.7414250632
 H         -3.0951210577       -1.4840779964       -0.9237421603
 H         -4.0489429119        0.0090597952       -0.9553681162
 H         -2.5364772252       -0.1088791086       -1.8734091701
  20
  -33.883402240000002        1.3458301868524970E-002 !
 C         -2.2536277426        0.1074638442        0.2584344405
 C         -0.9119195291       -0.6260393530        0.3547600598
 N          0.0666928448        0.1147289733        0.8881184939
 C          1.4312257456       -0.3302339952        0.9541202039
 C          2.2882580845        0.2066457587       -0.1780357120
 O          3.4695265144       -0.0349036505       -0.2937456764
 N         -2.0283523920        1.5474257786        0.2769004492
 O         -0.7714068868       -1.7979566634        0.0174001272
 O          1.6172551462        0.9661476580       -1.0201813591
 H         -1.6285316813        1.8350331451       -0.6117974599
 H         -2.9133701691        2.0301716108        0.3795169613
 C         -3.0361772368       -0.3982951559       -0.9583998568
 H         -2.8059940032       -0.1558003122        1.1695506157
 H         -0.1541017057        1.0902919716        1.0532989589
 H          1.4367206480       -1.4235171337        0.8805909903
 H          1.8915780329       -0.0451367842        1.9030077832
 H          2.1740586757        1.3063361322       -1.7479722603
 H         -4.0442497520        0.0086759599       -0.9624734555
 H         -2.5285335542       -0.1048212847       -1.8757720208
 H         -3.0884881885       -1.4832603942       -0.9316357661
  20
  -33.883400809999998        1.3437951916279833E-002 !
 C         -2.2529980526        0.1061266239        0.2574447253
 C         -0.9102556978       -0.6252253186        0.3561392321
 N          0.0663495169        0.1166485361        0.8916485464
 C          1.4316399586       -0.3259008703        0.9579515301
 C          2.2857547951        0.2056608711       -0.1790106765
 O          3.4667317288       -0.0362885739       -0.2966217451
 N         -2.0310936141        1.5465063217        0.2824727847
 O         -0.7671986888       -1.7965708734        0.0177578607
 O          1.6124566901        0.9610687907       -1.0230210242
 H         -1.6293743858        1.8386189960       -0.6038947661
 H         -2.9174616230        2.0268691956        0.3844997409
 C         -3.0293423549       -0.3963644306       -0.9647327089
 H         -2.8086342358       -0.1619059712        1.1651233835
 H         -0.1564315672        1.0915836795        1.0577142071
 H          1.4389979314       -1.4195710113        0.8907157427
 H          1.8929880505       -0.0343146164        1.9043017413
 H          2.1673259277        1.2979473661       -1.7538041561
 H         -2.5183474972       -0.0975617073       -1.8785135449
 H         -3.0787727311       -1.4815783160       -0.9428926872
 H         -4.0384869645        0.0079220229       -0.9715904384
  20
  -33.883319329999999        1.2327853576292878E-002 !
 C         -2.1350455567       -0.1817525297        0.2839486934
 C         -0.6774857063       -0.0175916250       -0.1474373817
 N         -0.0112885969        0.9365925472        0.5062456291
 C          1.3978434655        1.1442980505        0.2657041304
 C          2.0994266099       -0.2005569756        0.1217788512
 O          1.9687110042       -1.1198419458        0.8994542184
 N         -2.5723802691        1.0008530929        1.0143892939
 O         -0.1537235909       -0.7163957688       -1.0135366076
 O          2.9231775741       -0.2226748657       -0.9058670452
 H         -2.7285300764        1.7609393600        0.3592094077
 H         -3.4576387413        0.8112362870        1.4696595997
 C         -3.0044811790       -0.5443904259       -0.9252299226
 H         -2.1324606198       -1.0276028900        0.9839747013
 H         -0.5021594592        1.4239235555        1.2450726088
 H          1.8331135934        1.6711743796        1.1147933190
 H          1.5640051152        1.7109531181       -0.6556487831
 H          3.3867026226       -1.0768955829       -1.0056798406
 H         -2.5581184080       -1.3830537342       -1.4526876895
 H         -4.0084491964       -0.8148060083       -0.6079341786
 H         -3.0611626724        0.2992553174       -1.6108507776
  20
  -33.883316399999998        1.2289690125742700E-002 !
 C         -2.1371031792       -0.1824819620        0.2764446491
 C         -0.6742938835       -0.0167322701       -0.1359816628
 N         -0.0115373737        0.9231888211        0.5405660835
 C          1.3991990051        1.1357749743        0.3126906957
 C          2.0951376220       -0.2052869610        0.1132830436
 O          1.9857025447       -1.1442774631        0.8706269194
 N         -2.5792158727        0.9910309466        1.0185891641
 O         -0.1427360505       -0.7035485532       -1.0072478227
 O          2.8951358999       -0.1983756758       -0.9332382377
 H         -2.7267405110        1.7605115646        0.3724494074
 H         -3.4695643243        0.7974953012        1.4621333889
 C         -2.9933724769       -0.5245735793       -0.9479400589
 H         -2.1455208915       -1.0383294577        0.9641327335
 H         -0.5096146641        1.4066004031        1.2772098040
 H          1.8338665715        1.6225142234        1.1858343699
 H          1.5703892047        1.7412522781       -0.5827217476
 H          3.3558069699       -1.0493834925       -1.0671028917
 H         -3.0381989548        0.3284806429       -1.6227266232
 H         -2.5444484046       -1.3580560178       -1.4812937272
 H         -4.0021647094       -0.7947341171       -0.6461960843
  20
  -33.883200330000001        1.0869231880666888E-002 !
 C         -2.2885425293       -0.0482964181        0.1205839375
 C         -0.9353500449       -0.6510307098        0.4897994352
 N          0.0032364910        0.2626498780        0.7560554865
 C          1.3876562441       -0.0705611673        0.9441376042
 C          2.2384915925        0.1914832244       -0.2858103851
 O          3.4292480657       -0.0279138809       -0.3283756109
 N         -2.4271185822        1.2723435008        0.7199854698
 O         -0.7418410521       -1.8639843216        0.5172351797
 O          1.5541156305        0.6861186765       -1.2958783272
 H         -3.2480538292        1.7318938694        0.3426713180
 H         -2.5530208485        1.1900632327        1.7224566203
 C         -2.3233988862        0.0698235316       -1.4062344375
 H         -3.0625272107       -0.7678820249        0.4393385628
 H         -0.2742343332        1.2314408539        0.6502193575
 H          1.4509242054       -1.1412553333        1.1677759479
 H          1.8166713025        0.4829942626        1.7831054336
 H          2.1090870153        0.8509538313       -2.0837281463
 H         -2.1222543573       -0.8996808977       -1.8541763630
 H         -3.3010556670        0.4133743813       -1.7342193807
 H         -1.5670536662        0.7773696512       -1.7341781804
  20
  -33.883200170000002        1.0867391754042346E-002 !
 C         -2.2892610392       -0.0471627562        0.1214365534
 C         -0.9369937828       -0.6521362324        0.4904397256
 N          0.0036467746        0.2600422624        0.7544479718
 C          1.3876374913       -0.0752513365        0.9420185244
 C          2.2397588543        0.1919641907       -0.2859043358
 O          3.4303875118       -0.0281129397       -0.3284799766
 N         -2.4241720675        1.2750907828        0.7180814545
 O         -0.7458433074       -1.8654397504        0.5189087090
 O          1.5567632490        0.6923968558       -1.2940424234
 H         -3.2440875097        1.7359852140        0.3401946340
 H         -2.5498104551        1.1952279996        1.7207802682
 C         -2.3259199823        0.0679438876       -1.4055855571
 H         -3.0645322177       -0.7642173116        0.4427487099
 H         -0.2722813501        1.2292482116        0.6481647835
 H          1.4495894005       -1.1470540945        1.1605660244
 H          1.8165845735        0.4737661815        1.7841142798
 H          2.1123286042        0.8600554526       -2.0808936063
 H         -1.5683992659        0.7730909097       -1.7360263642
 H         -2.1275849431       -0.9029370775       -1.8517647416
 H         -3.3032425860        0.4129920474       -1.7330222536
  20
  -33.883200109999997        1.0866701786815411E-002 !
 C         -2.2882228519       -0.0486528641        0.1199589191
 C         -0.9348663030       -0.6507253718        0.4896173943
 N          0.0030102470        0.2634695746        0.7567037280
 C          1.3876651436       -0.0688322839        0.9448900358
 C          2.2379207283        0.1902791360       -0.2861848292
 O          3.4280596412       -0.0321426708       -0.3298748568
 N         -2.4288946902        1.2705737503        0.7220094385
 O         -0.7405165849       -1.8635592666        0.5162627504
 O          1.5540779800        0.6874468903       -1.2953565612
 H         -3.2503018316        1.7297591086        0.3452496662
 H         -2.5552191041        1.1859900742        1.7242406113
 C         -2.3216066809        0.0729256468       -1.4066431429
 H         -3.0618822238       -0.7696657643        0.4363000521
 H         -0.2751097697        1.2321472059        0.6517081348
 H          1.4516633657       -1.1389364101        1.1709212643
 H          1.8167240737        0.4870129915        1.7824165626
 H          2.1085024460        0.8498701342       -2.0841003730
 H         -3.2994223999        0.4157681603       -1.7349145591
 H         -1.5659610371        0.7823971462       -1.7320372205
 H         -2.1184806465       -0.8951833612       -1.8567182967
  20
  -33.883037369999997        9.1476096352751425E-003 !
 C         -2.1964170628       -0.2247413806        0.1304233343
 C         -0.6890877309       -0.3947208138        0.2823207657
 N         -0.0679120125        0.6633680444        0.8038946858
 C          1.3710635883        0.6928274944        0.9218743754
 C          1.9940230261        0.0826144621       -0.3278388731
 O          1.6896098864        0.3957784663       -1.4571086078
 N         -2.6896389760        0.7184424941        1.1256004934
 O         -0.0947203219       -1.4114189133       -0.0747504917
 O          2.9528269252       -0.7729500399       -0.0379893091
 H         -3.6513808443        0.9603635631        0.9155425503
 H         -2.6726850780        0.2950662408        2.0466116438
 C         -2.4524326882        0.3204153446       -1.2776037660
 H         -2.6436446297       -1.2311469268        0.2068721254
 H         -0.6391834446        1.4577681278        1.0620137012
 H          1.7140851212        0.1169775623        1.7868960644
 H          1.7033485917        1.7278764948        1.0031552942
 H          3.3630546470       -1.1693598830       -0.8310310713
 H         -2.0475222058        1.3249028543       -1.3619019893
 H         -1.9655771857       -0.3161605030       -2.0120205051
 H         -3.5194060041        0.3457418420       -1.4831511913
  20
  -33.883037170000001        9.1456738495067809E-003 !
 C         -2.1957440905       -0.2265040608        0.1304692852
 C         -0.6878223356       -0.3929371412        0.2806430018
 N         -0.0683779371        0.6666701346        0.8010088854
 C          1.3706188396        0.6990667032        0.9185115373
 C          1.9935705997        0.0817279495       -0.3277661666
 O          1.6938639964        0.3936330367       -1.4587575235
 N         -2.6898863712        0.7120481761        1.1296022052
 O         -0.0913053328       -1.4079543772       -0.0777773627
 O          2.9479369274       -0.7771343436       -0.0328911148
 H         -3.6522060529        0.9530539985        0.9211899297
 H         -2.6715060279        0.2853171222        2.0490190753
 C         -2.4550770750        0.3223773987       -1.2754546657
 H         -2.6403376215       -1.2342997734        0.2038303840
 H         -0.6411582145        1.4588322721        1.0626880290
 H          1.7148070436        0.1296917784        1.7873840699
 H          1.7012305694        1.7352026386        0.9922530858
 H          3.3581410803       -1.1782353078       -0.8236086417
 H         -1.9675010349       -0.3102304715       -2.0128395335
 H         -3.5224728073        0.3455936685       -1.4792596012
 H         -2.0530052516        1.3281409056       -1.3568407747
  20
  -33.883022470000000        9.0045094331109056E-003 !
 C         -2.2035448584       -0.1988040995        0.1179024184
 C         -0.7076104248       -0.4234519881        0.3099100759
 N         -0.0616904634        0.6177822591        0.8387001775
 C          1.3762065123        0.6097977206        0.9612322771
 C          1.9963812290        0.0930835032       -0.3301798430
 O          1.6192675160        0.4088798946       -1.4360463163
 N         -2.6835967406        0.7872341787        1.0772748055
 O         -0.1451118943       -1.4667104152       -0.0192553813
 O          3.0244327929       -0.6992088212       -0.1050661769
 H         -3.6305808864        1.0584412956        0.8380957259
 H         -2.7034326879        0.3872064143        2.0086066004
 C         -2.4037845742        0.3204479559       -1.3088309111
 H         -2.6923694771       -1.1846868208        0.2068453458
 H         -0.6097188509        1.4422048370        1.0478616750
 H          1.7031088119       -0.0429270378        1.7763306479
 H          1.7296219637        1.6261853912        1.1338421383
 H          3.4351239120       -1.0360676403       -0.9253655996
 H         -3.4636943304        0.3896039067       -1.5395056470
 H         -1.9504118358        1.3025544122       -1.4090953367
 H         -1.9305785838       -0.3562398178       -2.0157838309
  20
  -33.883016169999998        8.9446793768030112E-003 !
 C         -2.0857548545       -0.0784806296        0.6791341614
 C         -0.8923477352       -0.4181445879       -0.2183610986
 N         -0.0324868523        0.5937399675       -0.3871368055
 C          1.2263999474        0.4315825096       -1.0612591878
 C          2.3881843621        0.1696956851       -0.1192011489
 O          3.5239230545       -0.0101793928       -0.5007480726
 N         -2.1974979791        1.3646106139        0.8442198639
 O         -0.7496801052       -1.5238807653       -0.7329090165
 O          2.0369535233        0.1650529909        1.1495059810
 H         -2.5728757419        1.7730052479       -0.0063756390
 H         -2.8508940570        1.5726366394        1.5902882952
 C         -3.3509425465       -0.7611884860        0.1470200255
 H         -1.8384597526       -0.5079216387        1.6588366510
 H         -0.2055276997        1.4231786697        0.1689737285
 H          1.4626088677        1.3120261286       -1.6633179407
 H          1.1463673717       -0.4341535186       -1.7279398087
 H          2.7865646482       -0.0057404968        1.7534196955
 H         -4.1681139826       -0.6635385915        0.8572263492
 H         -3.6460158221       -0.3139929942       -0.8006694378
 H         -3.1490159998       -1.8153428075       -0.0225022979
  20
  -33.883013550000001        8.9199148625740739E-003 !
 C         -2.0854157532       -0.0796679010        0.6785371437
 C         -0.8906406090       -0.4173268881       -0.2179997477
 N         -0.0331740928        0.5963179760       -0.3884842715
 C          1.2261379052        0.4351576803       -1.0619536620
 C          2.3865310318        0.1694441798       -0.1192296407
 O          3.5225536810       -0.0096479830       -0.5002434622
 N         -2.1969539700        1.3628473274        0.8485747282
 O         -0.7454794460       -1.5233260642       -0.7312491785
 O          2.0339206501        0.1602070844        1.1491253240
 H         -2.5721790345        1.7744785664       -0.0005393415
 H         -2.8504855227        1.5681207205        1.5952641864
 C         -3.3503780483       -0.7601492588        0.1428156374
 H         -1.8401856901       -0.5125500120        1.6572274828
 H         -0.2067867522        1.4253419377        0.1681379476
 H          1.4634827220        1.3173304740       -1.6609480898
 H          1.1462273412       -0.4285292312       -1.7313069986
 H          2.7825869421       -0.0150375594        1.7530901522
 H         -3.6450339444       -0.3083887984       -0.8028316193
 H         -3.1479022798       -1.8134123516       -0.0316798835
 H         -4.1681815880       -0.6664230550        0.8529422603
  20
  -33.883008770000004        8.8749103211577408E-003 !
 C         -2.0872744923       -0.0761966860        0.6788656780
 C         -0.8929528913       -0.4212635253       -0.2152029437
 N         -0.0323896253        0.5891588173       -0.3890658484
 C          1.2260210004        0.4227000955       -1.0629562186
 C          2.3893903755        0.1723577729       -0.1199047470
 O          3.5269084213        0.0025385139       -0.5008289655
 N         -2.1979060771        1.3677850615        0.8367467393
 O         -0.7503609268       -1.5297861348       -0.7236595693
 O          2.0375366630        0.1649924499        1.1486458493
 H         -2.5699422094        1.7727608144       -0.0169721457
 H         -2.8537723808        1.5796797046        1.5795386738
 C         -3.3524430153       -0.7604163717        0.1484760294
 H         -1.8419010628       -0.5009874010        1.6610971917
 H         -0.2045901952        1.4219989214        0.1621238173
 H          1.4599418842        1.2969519595       -1.6748308332
 H          1.1462992199       -0.4503371950       -1.7202253743
 H          2.7881573971       -0.0006909888        1.7528728063
 H         -3.1510672934       -1.8155200973       -0.0156682779
 H         -4.1703524077       -0.6588047146        0.8572713071
 H         -3.6463087781       -0.3176517923       -0.8016716708
  20
  -33.883007470000003        8.8627099152202415E-003 !
 C         -2.1751077549        0.0295203671        0.5917740137
 C         -0.8922154238       -0.6604973035        0.1325170857
 N         -0.1228460853        0.1105179575       -0.6437698355
 C          1.1800516985       -0.2924405593       -1.0951969047
 C          2.3059961945        0.2271251324       -0.2195004012
 O          3.4772981626        0.0176764546       -0.4459969037
 N         -1.9416613882        1.4638946054        0.7052008691
 O         -0.6364239043       -1.8288537894        0.4118702306
 O          1.8804277532        0.9313098909        0.8096792831
 H         -2.8184874674        1.9387719589        0.8868777794
 H         -1.3180801149        1.6552311426        1.4819803000
 C         -3.2614325914       -0.2383325766       -0.4532952225
 H         -2.4713925856       -0.4505419373        1.5408030813
 H         -0.3955567618        1.0854226106       -0.7017327726
 H          1.3579382652        0.0375287595       -2.1212957105
 H          1.2254836852       -1.3869784826       -1.0697308429
 H          2.6108483426        1.2570370607        1.3716532750
 H         -3.3500885195       -1.3075507159       -0.6257595747
 H         -4.2183228771        0.1416341520       -0.1046749676
 H         -3.0021030007        0.2543962540       -1.3855485228
  20
  -33.883006330000001        8.8520249011271989E-003 !
 C         -2.1761439568        0.0312351508        0.5902763633
 C         -0.8935924461       -0.6617598995        0.1345828959
 N         -0.1220216676        0.1062157055       -0.6425093785
 C          1.1809841473       -0.2995506027       -1.0911494735
 C          2.3067299827        0.2267815970       -0.2192647207
 O          3.4779951319        0.0133707561       -0.4422025682
 N         -1.9403941096        1.4653906238        0.7018413955
 O         -0.6396926434       -1.8296743782        0.4175028182
 O          1.8810138728        0.9423043039        0.8019809601
 H         -2.8165908165        1.9419608573        0.8821084832
 H         -1.3171026105        1.6568973241        1.4788179039
 C         -3.2609979144       -0.2364099373       -0.4563788670
 H         -2.4750149348       -0.4467846771        1.5395287578
 H         -0.3933725812        1.0813092307       -0.7036240917
 H          1.3588387693        0.0235276418       -2.1195400889
 H          1.2265361888       -1.3938774556       -1.0583865099
 H          2.6113588554        1.2736838885        1.3606945352
 H         -2.9991646973        0.2546122840       -1.3888197605
 H         -3.3512327377       -1.3057029331       -0.6275238050
 H         -4.2178429651        0.1456931797       -0.1100166277
  20
  -33.883006320000000        8.8519312299441925E-003 !
 C         -2.1755951184        0.0308003204        0.5906424070
 C         -0.8930078599       -0.6612761867        0.1336816148
 N         -0.1223050454        0.1075548038       -0.6434420217
 C          1.1807930454       -0.2972247329       -1.0927397072
 C          2.3062590105        0.2266022992       -0.2189843970
 O          3.4775328626        0.0130115836       -0.4416294588
 N         -1.9404294739        1.4649939479        0.7028010391
 O         -0.6384558400       -1.8292872812        0.4155602727
 O          1.8802892129        0.9400545384        0.8036241984
 H         -2.8167173304        1.9410568060        0.8839578322
 H         -1.3166942539        1.6563311192        1.4794596709
 C         -3.2611173204       -0.2368218750       -0.4553019625
 H         -2.4734929108       -0.4478854929        1.5398639526
 H         -0.3940912039        1.0825912111       -0.7035774697
 H          1.3590176791        0.0286882182       -2.1201064964
 H          1.2263723170       -1.3916211500       -1.0629966436
 H          2.6104900959        1.2697497614        1.3635561442
 H         -4.2177953558        0.1449237958       -0.1080513217
 H         -3.0001137716        0.2545259569       -1.3878251320
 H         -3.3511189226       -1.3061216289       -0.6266086387
  20
  -33.882988449999999        8.6861144592674799E-003 !
 C         -2.1922062470       -0.0485622797        0.2087092874
 C         -0.6814741754       -0.2812240435        0.1855240526
 N          0.0117448477        0.4763460956        1.0331200257
 C          1.4396322365        0.3150510103        1.1845180519
 C          2.0651238975       -0.1441562239       -0.1269859170
 O          2.7919746259       -1.1073246536       -0.2286178288
 N         -2.4877824738        1.2099475744        0.8801851543
 O         -0.1438976371       -1.1067638111       -0.5531799905
 O          1.8515142002        0.7160934347       -1.1086334607
 H         -2.2539115811        1.9821501643        0.2633943169
 H         -3.4812298154        1.2691256986        1.0707520985
 C         -2.7572571583       -0.1644207281       -1.2116751224
 H         -2.6048852522       -0.8613668188        0.8202277627
 H         -0.5059269246        1.1074690325        1.6327531582
 H          1.6801837519       -0.4294982950        1.9502386253
 H          1.8812887666        1.2785094371        1.4452268054
 H          2.2668461646        0.4346577118       -1.9454222245
 H         -2.3924451206        0.6568259930       -1.8260565149
 H         -2.4258735333       -1.0978929482       -1.6585435283
 H         -3.8439526501       -0.1424789616       -1.1939901457
  20
  -33.882988169999997        8.6835411920680901E-003 !
 C         -2.1921818283       -0.0488445834        0.2084306204
 C         -0.6813930011       -0.2812089612        0.1855905014
 N          0.0117044497        0.4770936967        1.0326197682
 C          1.4396417894        0.3162212171        1.1841922437
 C          2.0648319352       -0.1442401410       -0.1270404548
 O          2.7919588844       -1.1072923611       -0.2278462047
 N         -2.4883840519        1.2088912352        0.8810892591
 O         -0.1437520576       -1.1075404592       -0.5521808830
 O          1.8510963779        0.7152321525       -1.1093702284
 H         -2.2549693614        1.9818356530        0.2650154309
 H         -3.4818721417        1.2673607551        1.0717248332
 C         -2.7561179736       -0.1631669791       -1.2125684065
 H         -2.6051613427       -0.8624356531        0.8187235274
 H         -0.5061374000        1.1083984080        1.6319495162
 H          1.6803676577       -0.4274045503        1.9507744164
 H          1.8811176036        1.2800805283        1.4437316886
 H          2.2666609303        0.4332416875       -1.9458808026
 H         -3.8428231806       -0.1415616670       -1.1957877723
 H         -2.3910345867        0.6589876441       -1.8255640107
 H         -2.4240296569       -1.0959245203       -1.6604254222
  20
  -33.882987810000003        8.6802338258733461E-003 !
 C         -2.1922070067       -0.0491320684        0.2082366594
 C         -0.6812811536       -0.2806307649        0.1851962039
 N          0.0114758149        0.4781069360        1.0320505081
 C          1.4394584784        0.3179274646        1.1837178366
 C          2.0649663712       -0.1446654924       -0.1266167919
 O          2.7905824204       -1.1090088102       -0.2260247302
 N         -2.4891969904        1.2078743389        0.8819339991
 O         -0.1431608854       -1.1060779763       -0.5532584587
 O          1.8533651939        0.7142258210       -1.1098924809
 H         -2.2565764863        1.9814262514        0.2663756845
 H         -3.4826554929        1.2654068294        1.0728882823
 C         -2.7566832408       -0.1630611368       -1.2125761667
 H         -2.6044731033       -0.8634699731        0.8179728840
 H         -0.5066954590        1.1085524125        1.6319719012
 H          1.6804885439       -0.4242992428        1.9515828303
 H          1.8806462408        1.2824036587        1.4415991954
 H          2.2685873865        0.4304877287       -1.9459394358
 H         -2.4240704842       -1.0952858003       -1.6611632358
 H         -3.8434118274       -0.1423165733       -1.1954677539
 H         -2.3925098057        0.6597402889       -1.8251984859
  20
  -33.882982730000002        8.6336972959273842E-003 !
 C         -2.1360229326        0.5047137468       -0.0124048241
 C         -0.8286126959       -0.2955909425       -0.0054689938
 N          0.0615603316        0.0641365458        0.9389639347
 C          1.3936324853       -0.4874537753        0.9459193378
 C          2.2904309054        0.2178937229       -0.0571546845
 O          1.9196330778        1.1203212210       -0.7737544946
 N         -2.9136883648        0.2769087434       -1.2194805172
 O         -0.6386662008       -1.2343776918       -0.7724686544
 O          3.5146737227       -0.2669784452       -0.0563278225
 H         -2.3659518378        0.5431807402       -2.0313885626
 H         -3.0934767138       -0.7196443257       -1.3083136014
 C         -2.9687209164        0.1187474833        1.2134837139
 H         -1.8928383690        1.5724657731        0.0249621201
 H         -0.0756043323        0.9418996494        1.4166504225
 H          1.3347058515       -1.5391272823        0.6481322356
 H          1.8332756606       -0.4219094816        1.9414101302
 H          4.1045815865        0.1686521547       -0.7035215999
 H         -3.9166592679        0.6461233647        1.1756862350
 H         -3.1645668134       -0.9509476696        1.2034344765
 H         -2.4493712997        0.3734929086        2.1313298060
  20
  -33.882956900000003        8.4009068993030865E-003 !
 C         -2.1351693910        0.5050556103       -0.0076941326
 C         -0.8265823943       -0.2933692920       -0.0041027356
 N          0.0611782847        0.0589382379        0.9454965148
 C          1.3939896439       -0.4911186622        0.9489235794
 C          2.2874765993        0.2163870081       -0.0556274224
 O          1.9152627268        1.1215697455       -0.7681088717
 N         -2.9051143876        0.2922437761       -1.2224380814
 O         -0.6337112039       -1.2250001658       -0.7791601105
 O          3.5118424747       -0.2683089353       -0.0611297624
 H         -2.3551932177        0.5744742402       -2.0274501404
 H         -3.0792106443       -0.7037648845       -1.3275717764
 C         -2.9749495542        0.1003166873        1.2073478558
 H         -1.8947033530        1.5726700995        0.0460332873
 H         -0.0782286474        0.9320833852        1.4310648527
 H          1.3362323921       -1.5423605407        0.6499010457
 H          1.8352392490       -0.4265177207        1.9437044449
 H          4.0973085479        0.1697547976       -0.7108384380
 H         -3.1670627424       -0.9697915497        1.1821526203
 H         -2.4631412366        0.3451993820        2.1321222674
 H         -3.9245178854        0.6247250418        1.1691116553
  20
  -33.882956360000001        8.3961077805581111E-003 !
 C         -2.1363195240        0.5047798015       -0.0088337128
 C         -0.8277654722       -0.2937806443       -0.0047710022
 N          0.0614596875        0.0615865653        0.9422344509
 C          1.3937017411       -0.4898221333        0.9469235727
 C          2.2894307511        0.2169927669       -0.0560671686
 O          1.9193054278        1.1227414709       -0.7688996877
 N         -2.9090314940        0.2872271654       -1.2209670543
 O         -0.6362634786       -1.2283110209       -0.7766227254
 O          3.5132348022       -0.2691536948       -0.0598832266
 H         -2.3605861324        0.5657637263       -2.0282374534
 H         -3.0833812036       -0.7091837829       -1.3216949319
 C         -2.9737025934        0.1050097643        1.2094824137
 H         -1.8954596765        1.5725338870        0.0402838120
 H         -0.0768488358        0.9364222584        1.4250648732
 H          1.3349931939       -1.5411407779        0.6481638052
 H          1.8341629852       -0.4254719926        1.9420293271
 H          4.1009036769        0.1696472522       -0.7071219101
 H         -2.4602333173        0.3541815953        2.1321576946
 H         -3.9235690151        0.6288768754        1.1707739977
 H         -3.1654065011       -0.9652847617        1.1893681056
  20
  -33.882850769999997        7.5084829824021686E-003 !
 C         -2.1004823618       -0.3411442727        0.4177778984
 C         -0.6549019191       -0.0827191512       -0.0084542627
 N          0.0072834783        0.7702370575        0.7692315595
 C          1.3766514215        1.1395158424        0.4918662157
 C          2.0931072399        0.0272630305       -0.2661741341
 O          2.6512582095        0.1872557250       -1.3293009521
 N         -2.5552437782        0.7328529405        1.2912499727
 O         -0.1294204166       -0.6459923472       -0.9690891219
 O          2.1818561962       -1.0832692150        0.4462670269
 H         -2.7456479130        1.5611664697        0.7353399510
 H         -3.4256107002        0.4649018055        1.7355873105
 C         -2.9766468702       -0.5763252557       -0.8175745804
 H         -2.0691025740       -1.2645979035        1.0100914837
 H         -0.4972168817        1.1949757920        1.5383530702
 H          1.9031533376        1.2898350054        1.4362549826
 H          1.4274639480        2.0471998789       -0.1183244770
 H          2.6595043707       -1.7911885499       -0.0257029416
 H         -3.0609684690        0.3417646321       -1.3966984269
 H         -2.5197249477       -1.3341195932       -1.4482372688
 H         -3.9704139806       -0.9057068697       -0.5250427695
  20
  -33.882850460000000        7.5060203006084396E-003 !
 C         -2.1008357937       -0.3408279018        0.4172512781
 C         -0.6546614297       -0.0832427361       -0.0074001687
 N          0.0073765410        0.7692713351        0.7708683816
 C          1.3768700674        1.1384627937        0.4939503974
 C          2.0924614211        0.0273169857       -0.2666123825
 O          2.6488492287        0.1885000979       -1.3305062208
 N         -2.5559010636        0.7332622848        1.2904284414
 O         -0.1285432777       -0.6467326204       -0.9675709253
 O          2.1835062284       -1.0835850892        0.4450384555
 H         -2.7447414315        1.5619415466        0.7345347612
 H         -3.4271682773        0.4659591740        1.7334044875
 C         -2.9758536581       -0.5750171592       -0.8191075262
 H         -2.0708912546       -1.2644327321        1.0093927017
 H         -0.4974487315        1.1945366001        1.5394764530
 H          1.9037206328        1.2865061590        1.4385251112
 H          1.4278860882        2.0473897196       -0.1143459037
 H          2.6607578821       -1.7907521373       -0.0283910902
 H         -3.9703195408       -0.9034589593       -0.5278434600
 H         -3.0585008904        0.3432232227       -1.3982287998
 H         -2.5189096528       -1.3331509992       -1.4493303883
  20
  -33.882850390000002        7.5054643229734170E-003 !
 C         -2.1011212836       -0.3405857999        0.4168435760
 C         -0.6545995386       -0.0832948046       -0.0066941667
 N          0.0072148942        0.7688615779        0.7721445166
 C          1.3772013505        1.1372329439        0.4964400405
 C          2.0919655370        0.0273386824       -0.2668695292
 O          2.6469441346        0.1902851028       -1.3312173220
 N         -2.5565026867        0.7336815124        1.2896357408
 O         -0.1277921372       -0.6471559617       -0.9663268557
 O          2.1846907491       -1.0844355047        0.4432430549
 H         -2.7443788068        1.5624913343        0.7336138896
 H         -3.4283209330        0.4667339639        1.7316991596
 C         -2.9749505064       -0.5745644139       -0.8204019903
 H         -2.0717786613       -1.2641499261        1.0090885350
 H         -0.4977206028        1.1940689282        1.5406764570
 H          1.9040440234        1.2819602711        1.4415080826
 H          1.4292604400        2.0477924311       -0.1092923684
 H          2.6615907700       -1.7907546690       -0.0318587359
 H         -2.5179368294       -1.3332298163       -1.4499787386
 H         -3.9698310225       -0.9022186728       -0.5297744896
 H         -3.0565583120        0.3435579899       -1.3998991304
  20
  -33.882635860000001        5.9811735367396729E-003 !
 C         -2.1930851122       -0.1787571727        0.0694665654
 C         -0.6854687967       -0.3464236838        0.2249358866
 N         -0.0671705627        0.7145864396        0.7386126603
 C          1.3618604534        0.7275457677        0.9466711241
 C          2.0620088919       -0.0899873001       -0.1312030739
 O          2.8831143635       -0.9495380012        0.0994824401
 N         -2.6859722093        0.7652102876        1.0642906575
 O         -0.0866488746       -1.3578809290       -0.1424563825
 O          1.7738396857        0.3380045410       -1.3472384853
 H         -3.6454178878        1.0130716850        0.8507839257
 H         -2.6758615880        0.3409364562        1.9849515383
 C         -2.4529129582        0.3636677127       -1.3388793220
 H         -2.6379496274       -1.1858472889        0.1488461686
 H         -0.6451155885        1.4884150635        1.0436635411
 H          1.6319484264        0.3026241807        1.9190039831
 H          1.7229030771        1.7547313713        0.8734202235
 H          2.2363747027       -0.1690935838       -2.0409713792
 H         -1.9841693127       -0.2846650652       -2.0741562772
 H         -3.5215744838        0.4017713749       -1.5336734685
 H         -2.0374314346        1.3628849312       -1.4294187903
  20
  -33.882635639999997        5.9797812644470146E-003 !
 C         -2.1930742145       -0.1786970579        0.0693721197
 C         -0.6855731901       -0.3468962587        0.2253792263
 N         -0.0671836190        0.7140250952        0.7391614119
 C          1.3618902168        0.7270789044        0.9469511018
 C          2.0620537449       -0.0896524788       -0.1315415902
 O          2.8840159882       -0.9484374439        0.0985179736
 N         -2.6859092492        0.7654677111        1.0640427347
 O         -0.0869896290       -1.3585815452       -0.1416122201
 O          1.7724606262        0.3380309806       -1.3473431814
 H         -3.6452252329        1.0135134482        0.8503430680
 H         -2.6760757936        0.3412654113        1.9847726881
 C         -2.4519890474        0.3639201394       -1.3390861972
 H         -2.6384189155       -1.1855711460        0.1485433001
 H         -0.6451544288        1.4880812212        1.0436641232
 H          1.6323311902        0.3017045826        1.9189780078
 H          1.7227701335        1.7544085039        0.8742476476
 H          2.2347113571       -0.1686738295       -2.0415163955
 H         -3.5204943182        0.4030043055       -1.5343701847
 H         -2.0356285131        1.3628011518       -1.4295577349
 H         -1.9835997265       -0.2847688200       -2.0742587300
  20
  -33.882635290000003        5.9775669537784678E-003 !
 C         -2.1931719842       -0.1791125503        0.0694140159
 C         -0.6854494502       -0.3463805058        0.2245833543
 N         -0.0674285960        0.7153186623        0.7371557698
 C          1.3615005170        0.7288865086        0.9455960814
 C          2.0623106374       -0.0898388545       -0.1308791861
 O          2.8835418820       -0.9487890331        0.1012458923
 N         -2.6859407314        0.7645514293        1.0646783114
 O         -0.0864867885       -1.3579817296       -0.1421154467
 O          1.7744087648        0.3364481107       -1.3475522243
 H         -3.6456850165        1.0118514689        0.8518747865
 H         -2.6748979801        0.3403603182        1.9853958192
 C         -2.4537827655        0.3636191023       -1.3386835906
 H         -2.6378289676       -1.1862701660        0.1486364421
 H         -0.6457931992        1.4889363422        1.0420636061
 H          1.6315964056        0.3052983593        1.9184909177
 H          1.7222698623        1.7561309938        0.8709269243
 H          2.2369823830       -0.1716632414       -2.0404716902
 H         -2.0382378555        1.3628125063       -1.4293006451
 H         -1.9855005438       -0.2846082756       -2.0743767208
 H         -3.5225799383        0.4019326412       -1.5329096043
  20
  -33.882450349999999        4.9150949275894376E-003 !
 C         -2.1820549801       -0.4659563294        0.0796032848
 C         -0.8802482164        0.1367727325        0.6187205300
 N          0.1724425204       -0.6995004750        0.6291501149
 C          1.5081085507       -0.2442779652        0.9184805775
 C          2.3432030102       -0.0134711262       -0.3283030507
 O          3.4865629906        0.3837737791       -0.2992871273
 N         -3.3572613240        0.2796186349        0.4982680581
 O         -0.8177863056        1.2946269886        1.0218299782
 O          1.6993983145       -0.2983511226       -1.4421537392
 H         -3.4223139955        0.2770435694        1.5108714567
 H         -3.2450533849        1.2502888711        0.2183447238
 C         -2.1015643602       -0.4783931041       -1.4506052662
 H         -2.2873754638       -1.4898221322        0.4531287645
 H          0.0770697280       -1.6067560789        0.1982347175
 H          2.0339351842       -0.9539902445        1.5620316522
 H          1.4307842852        0.7107298619        1.4489816877
 H          2.2384573211       -0.1399772701       -2.2423974617
 H         -3.0334258881       -0.8634650171       -1.8521992857
 H         -1.9555634220        0.5349112115       -1.8185801469
 H         -1.2761817258       -1.0956156390       -1.7911297546
  20
  -33.882448300000000        4.9044441715099980E-003 !
 C         -2.1822232367       -0.4690979387        0.0780132350
 C         -0.8827207914        0.1374838840        0.6183817811
 N          0.1733097545       -0.6945181765        0.6257460761
 C          1.5074058323       -0.2357604299        0.9166526067
 C          2.3467261772       -0.0123495840       -0.3284986189
 O          3.4902184454        0.3843630614       -0.2976447239
 N         -3.3606799040        0.2677528978        0.5028419136
 O         -0.8247830554        1.2945067436        1.0246161321
 O          1.7068009042       -0.3034240300       -1.4430302873
 H         -3.4251888598        0.2573439754        1.5154330583
 H         -3.2532886362        1.2409558444        0.2299507663
 C         -2.1037590082       -0.4723172153       -1.4523610522
 H         -2.2816438483       -1.4956622581        0.4457017308
 H          0.0809376474       -1.6014574708        0.1934868996
 H          2.0321335011       -0.9404868643        1.5666580173
 H          1.4269284126        0.7225070656        1.4408116974
 H          2.2488696382       -0.1502221174       -2.2423291460
 H         -1.2741796406       -1.0815237172       -1.7973896125
 H         -3.0333371648       -0.8617908589       -1.8549436311
 H         -1.9658990483        0.5441174194       -1.8147132869
  20
  -33.882448150000002        4.9036657546713295E-003 !
 C         -2.1818814183       -0.4665415818        0.0787689984
 C         -0.8806212018        0.1360960113        0.6192440185
 N          0.1727216282       -0.6993281418        0.6284867661
 C          1.5080498454       -0.2432297920        0.9180568009
 C          2.3434010483       -0.0128893642       -0.3286174045
 O          3.4865049472        0.3850774804       -0.2995671351
 N         -3.3576784620        0.2774712698        0.4986145519
 O         -0.8191416178        1.2933362913        1.0242544814
 O          1.7001077750       -0.2991201984       -1.4424226634
 H         -3.4244547510        0.2705839533        1.5110802223
 H         -3.2446470613        1.2493024420        0.2230643689
 C         -2.1006859770       -0.4757512268       -1.4514274382
 H         -2.2866561148       -1.4912697139        0.4500615102
 H          0.0780472903       -1.6061479307        0.1965213779
 H          2.0341174060       -0.9522230121        1.5622049141
 H          1.4300301150        0.7119831482        1.4480610641
 H          2.2394944796       -0.1413670541       -2.2425585444
 H         -1.9558856922        0.5385220569       -1.8172520814
 H         -1.2744247203       -1.0913264774       -1.7928783145
 H         -3.0319478814       -0.8611287158       -1.8540904067
  20
  -33.882413769999999        4.7284729175530787E-003 !
 C         -2.1188136082       -0.3834046634        0.3940564184
 C         -0.6705847078       -0.2296075123       -0.0581018319
 N         -0.1148688771        0.9363566817        0.2608869783
 C          1.2232304443        1.2778090358       -0.1631882350
 C          2.0823288147        0.0252840176       -0.2839904385
 O          2.7169261868       -0.2654746564       -1.2731716980
 N         -2.3622186237        0.4631176906        1.5545771348
 O         -0.0727025992       -1.1065109421       -0.6832067489
 O          2.1755969831       -0.6276193818        0.8622704144
 H         -3.3549985191        0.4820457970        1.7585699095
 H         -1.8876780492        0.0858336797        2.3672734344
 C         -3.0184124465        0.0518970792       -0.7664275433
 H         -2.2812377095       -1.4590242197        0.5818421501
 H         -0.6761214621        1.5939765093        0.7883253758
 H          1.6815885809        1.9252311579        0.5863990428
 H          1.2173602353        1.7754136346       -1.1384102784
 H          2.7398950815       -1.4208803201        0.7943368921
 H         -4.0584762838       -0.1608984810       -0.5334489325
 H         -2.9044051522        1.1180324555       -0.9394365614
 H         -2.7430659748       -0.4883703071       -1.6684210378
  20
  -33.882408689999998        4.7031225956676815E-003 !
 C         -2.1182862425       -0.3829657728        0.3958690257
 C         -0.6713316056       -0.2305519138       -0.0607765352
 N         -0.1158809688        0.9376495763        0.2508013650
 C          1.2210963832        1.2768809543       -0.1780005489
 C          2.0830455112        0.0248435932       -0.2828629628
 O          2.7218094421       -0.2748031841       -1.2665675589
 N         -2.3574512551        0.4640139788        1.5569719985
 O         -0.0739759701       -1.1103462294       -0.6823539057
 O          2.1721602665       -0.6171632082        0.8698439405
 H         -3.3494939590        0.4830371453        1.7646928954
 H         -1.8797143769        0.0872880616        2.3682206512
 C         -3.0209093925        0.0532573458       -0.7618931419
 H         -2.2814584249       -1.4583523552        0.5841952070
 H         -0.6758184807        1.5968847782        0.7775501413
 H          1.6780196922        1.9349784643        0.5630250576
 H          1.2129894302        1.7623015800       -1.1593849371
 H          2.7384565477       -1.4097650849        0.8120540869
 H         -2.9066792266        1.1193515723       -0.9346525435
 H         -2.7486864026       -0.4867941312       -1.6649114391
 H         -4.0604281341       -0.1588905165       -0.5261599109
  20
  -33.882353129999998        4.4345820165781150E-003 !
 C         -2.1274075779        0.3534502803        0.2385534604
 C         -0.8310867618       -0.4569970567        0.2191578979
 N          0.0803402918       -0.1230758403        1.1568754306
 C          1.4516352633       -0.5488398428        1.0152867097
 C          2.1513344771        0.2610665201       -0.0642936910
 O          1.6074506281        1.1395439279       -0.6962241190
 N         -2.1239714688        1.2603815229       -0.9087424402
 O         -0.6160728647       -1.3230660390       -0.6239309223
 O          3.4042657972       -0.1017264039       -0.2328007288
 H         -1.2589362829        1.7932874715       -0.9265827696
 H         -2.1500157146        0.7093667396       -1.7618526425
 C         -3.3406198595       -0.5676317903        0.1729029419
 H         -2.1734386209        0.9706823829        1.1413963305
 H         -0.0886961405        0.6979178945        1.7187340334
 H          1.4644938458       -1.5962516864        0.6985325709
 H          1.9866294056       -0.4527034620        1.9593554179
 H          3.8652083701        0.4023147559       -0.9330438448
 H         -3.4378004800       -1.1260153733        1.0992875143
 H         -4.2360452668        0.0229243941        0.0081829952
 H         -3.2184374931       -1.2710963942       -0.6481417318
  20
  -33.882351989999997        4.4292356189415960E-003 !
 C         -2.1271365169        0.3495157013        0.2390953681
 C         -0.8326228487       -0.4636738360        0.2250426363
 N          0.0799037233       -0.1224669279        1.1592831245
 C          1.4520736925       -0.5451945401        1.0170277998
 C          2.1479008390        0.2637518505       -0.0657737776
 O          1.6009481789        1.1406116945       -0.6974909487
 N         -2.1060416296        1.2679865642       -0.8991180179
 O         -0.6180598265       -1.3354054688       -0.6122434367
 O          3.4007816933       -0.0976631958       -0.2374119063
 H         -1.2365000324        1.7938784872       -0.9045754398
 H         -2.1295182511        0.7258563287       -1.7579458449
 C         -3.3428032119       -0.5659426800        0.1494583323
 H         -2.1812818735        0.9578576150        1.1475474845
 H         -0.0897009630        0.7021063020        1.7157706312
 H          1.4670934401       -1.5934139062        0.7031865357
 H          1.9881034198       -0.4450984636        1.9601217022
 H          3.8589954555        0.4058573618       -0.9399036784
 H         -3.2115818740       -1.2642514561       -0.6746239389
 H         -3.4553935330       -1.1304947022        1.0703255049
 H         -4.2335044720        0.0292895023       -0.0237757547
  20
  -33.882350270000003        4.4211813208238455E-003 !
 C         -2.1270873357        0.3462284098        0.2395476749
 C         -0.8315606979       -0.4652315991        0.2281370768
 N          0.0789165396       -0.1212348652        1.1634832584
 C          1.4522375736       -0.5405339855        1.0223150159
 C          2.1440967184        0.2639521204       -0.0664307320
 O          1.5958053578        1.1404831305       -0.6975568642
 N         -2.0975121436        1.2743731836       -0.8907461582
 O         -0.6135456105       -1.3368248287       -0.6083827947
 O          3.3950768974       -0.1011232880       -0.2440944625
 H         -2.1179299136        0.7395908229       -1.7542275781
 H         -1.2266522188        1.7981413757       -0.8874889954
 C         -3.3415689163       -0.5688800998        0.1327876900
 H         -2.1883440474        0.9469182408        1.1526428661
 H         -0.0933206953        0.7033541734        1.7191197798
 H          1.4706855887       -1.5907386132        0.7156021967
 H          1.9888013430       -0.4322798898        1.9641783068
 H          3.8504923387        0.3991951778       -0.9506657964
 H         -4.2310040282        0.0273248092       -0.0436060157
 H         -3.2029713164       -1.2609459384       -0.6953673114
 H         -3.4618971629       -1.1405362606        1.0482855058
  20
  -33.882350260000003        4.4211345363548401E-003 !
 C         -2.1269248176        0.3464977420        0.2394203906
 C         -0.8312488632       -0.4647164292        0.2278814141
 N          0.0789246698       -0.1213715292        1.1637835642
 C          1.4523089930       -0.5406547658        1.0226457443
 C          2.1439896082        0.2637372789       -0.0662213322
 O          1.5956080818        1.1403704526       -0.6970217385
 N         -2.0982645276        1.2736927097       -0.8916737560
 O         -0.6129939385       -1.3358124773       -0.6090848885
 O          3.3947831008       -0.1015603375       -0.2445004191
 H         -2.1185691700        0.7383038307       -1.7547946555
 H         -1.2277145908        1.7979407618       -0.8889981247
 C         -3.3412239813       -0.5688622214        0.1339234919
 H         -2.1878389364        0.9477236430        1.1521686123
 H         -0.0933889062        0.7030112856        1.7197241792
 H          1.4710497169       -1.5908782406        0.7159024334
 H          1.9889382372       -0.4321480247        1.9644012887
 H          3.8499605906        0.3988139705       -0.9511734567
 H         -3.2029217915       -1.2613899593       -0.6938348905
 H         -3.4607329275       -1.1399589756        1.0498457669
 H         -4.2308792662        0.0270554984       -0.0423642163
  20
  -33.882350070000001        4.4202457255672206E-003 !
 C         -2.1265627619        0.3455722227        0.2394060800
 C         -0.8330543501       -0.4690417676        0.2305027486
 N          0.0791670767       -0.1220046865        1.1631307777
 C          1.4524970565       -0.5409645032        1.0206726239
 C          2.1434569248        0.2656206659       -0.0670336113
 O          1.5929458978        1.1402822694       -0.6988116307
 N         -2.0892612293        1.2757845851       -0.8891173409
 O         -0.6172858158       -1.3444867977       -0.6025209563
 O          3.3957936427       -0.0952957524       -0.2432244475
 H         -1.2159932144        1.7955205601       -0.8823917178
 H         -2.1097687708        0.7428939398       -1.7537548081
 C         -3.3434100198       -0.5653561305        0.1260753549
 H         -2.1893562664        0.9446546293        1.1534622975
 H         -0.0920614546        0.7048976354        1.7157011975
 H          1.4707072034       -1.5907046397        0.7121465859
 H          1.9896521821       -0.4342267760        1.9623497508
 H          3.8508660678        0.4075698996       -0.9481855151
 H         -4.2300729525        0.0338413810       -0.0541535072
 H         -3.2030102967       -1.2573868534       -0.7017991669
 H         -3.4698418374       -1.1371674434        1.0406591481
  20
  -33.882349800000000        4.4189829860306045E-003 !
 C         -2.1263254836        0.3452857693        0.2392253677
 C         -0.8313963969       -0.4670588620        0.2301788746
 N          0.0786646548       -0.1216890083        1.1655566525
 C          1.4525240842       -0.5392889243        1.0240340100
 C          2.1418784496        0.2644310501       -0.0668210694
 O          1.5918728117        1.1402616471       -0.6973902131
 N         -2.0910621567        1.2762738991       -0.8886911933
 O         -0.6127518249       -1.3395673152       -0.6051677587
 O          3.3926772807       -0.0999608766       -0.2466420368
 H         -2.1102970104        0.7437539277       -1.7535962519
 H         -1.2188558389        1.7977960969       -0.8816249225
 C         -3.3413791461       -0.5680077859        0.1253622803
 H         -2.1903937698        0.9436736585        1.1536306874
 H         -0.0942076136        0.7036690902        1.7199041232
 H          1.4725358136       -1.5899938061        0.7190069216
 H          1.9897781050       -0.4283533994        1.9652177217
 H          3.8463462478        0.4001825582       -0.9544134219
 H         -3.4668021633       -1.1408682634        1.0394268548
 H         -4.2291350463        0.0297163510       -0.0543719076
 H         -3.1996056390       -1.2589889970       -0.7031562108
  20
  -33.882321079999997        4.2867043464767107E-003 !
 C         -2.1416252799        0.3991914359        0.1462953159
 C         -0.6904427401       -0.0822096409        0.0633989303
 N          0.0143534396       -0.0282236479        1.2025512137
 C          1.4001247061       -0.4460669501        1.2054057158
 C          2.1106498651        0.1317558366       -0.0118631395
 O          1.9797775214        1.2750517772       -0.3902671545
 N         -2.6818188556        0.7442654117       -1.1582515645
 O         -0.2040952642       -0.5205240989       -0.9775931484
 O          2.9289329620       -0.7366682452       -0.5670530890
 H         -2.1332949498        1.4942718868       -1.5665108298
 H         -2.5800340788       -0.0570606666       -1.7754887655
 C         -2.9880148458       -0.7115418640        0.7760635341
 H         -2.1864805274        1.2976052355        0.7704955652
 H         -0.3727604092        0.4059699772        2.0246834337
 H          1.4835075738       -1.5359370802        1.1583208277
 H          1.8901300368       -0.0715404035        2.1035677402
 H          3.3983778132       -0.3809240904       -1.3469691668
 H         -2.9037289214       -1.6194325640        0.1830738597
 H         -2.6602349038       -0.9200209712        1.7893772733
 H         -4.0274988898       -0.3998024390        0.7886310414
  20
  -33.882321050000002        4.2865682636049332E-003 !
 C         -2.1415825126        0.3983342414        0.1473466085
 C         -0.6901238514       -0.0821388126        0.0643890008
 N          0.0144971513       -0.0290666506        1.2036383442
 C          1.4005231823       -0.4461735734        1.2060386859
 C          2.1098598154        0.1315380580       -0.0120164501
 O          1.9798453795        1.2753354082       -0.3893072043
 N         -2.6801162566        0.7482257261       -1.1566077579
 O         -0.2031771142       -0.5187532566       -0.9770380933
 O          2.9265325543       -0.7373356246       -0.5689002062
 H         -2.1312617071        1.4999364214       -1.5612591509
 H         -2.5773357455       -0.0507300065       -1.7767552230
 C         -2.9882840523       -0.7153001280        0.7714982354
 H         -2.1877822336        1.2942334187        0.7750538452
 H         -0.3731843473        0.4030225786        2.0266368334
 H          1.4845899990       -1.5360022500        1.1595115296
 H          1.8907852551       -0.0707260694        2.1037031682
 H          3.3950750588       -0.3815574872       -1.3493371076
 H         -2.6620803889       -0.9273248420        1.7845843626
 H         -4.0279409636       -0.4041491888        0.7835041343
 H         -2.9025235057       -1.6208908632        0.1752200695
  20
  -33.882318599999998        4.2754693973000354E-003 !
 C         -2.1412182152        0.3979136899        0.1480066904
 C         -0.6899754123       -0.0831502828        0.0653565908
 N          0.0147517843       -0.0300691509        1.2045344447
 C          1.4010230074       -0.4463703483        1.2063799453
 C          2.1092791474        0.1317461452       -0.0121103848
 O          1.9782800437        1.2754328399       -0.3893367453
 N         -2.6777931265        0.7519763988       -1.1556299570
 O         -0.2031014096       -0.5198632858       -0.9760736477
 O          2.9262776105       -0.7365195282       -0.5693925630
 H         -2.1277423172        1.5042407789       -1.5576343850
 H         -2.5751477760       -0.0454427175       -1.7777821364
 C         -2.9895789954       -0.7169840198        0.7675926936
 H         -2.1877235587        1.2919389070        0.7783253942
 H         -0.3726879854        0.4022422822        2.0275200571
 H          1.4857290495       -1.5361398537        1.1599382133
 H          1.8914513186       -0.0704966742        2.1037555962
 H          3.3941842367       -0.3803311800       -1.3500337574
 H         -4.0292156800       -0.4055848188        0.7775765752
 H         -2.9024617834       -1.6211616016        0.1693752273
 H         -2.6658891346       -0.9315290834        1.7809527630
  20
  -33.882265410000002        4.0414701055128304E-003 !
 C         -2.1979530677       -0.2413140889        0.1221295616
 C         -0.6732771310       -0.2392277690        0.0883987559
 N         -0.1164149277        0.9056439123        0.4630803118
 C          1.3152664803        1.1090080732        0.4982409718
 C          2.0645577439       -0.1222779897       -0.0128805350
 O          2.5884807395       -0.9390056593        0.7143124543
 N         -2.6659562343        0.7114613390        1.1202911340
 O         -0.0172513408       -1.2088847694       -0.2961434386
 O          2.2543990236       -0.0758790582       -1.3204134112
 H         -3.6679534785        0.8343535732        1.0278986792
 H         -2.4846533186        0.3583577519        2.0532415647
 C         -2.6959455350        0.1708514213       -1.2660597858
 H         -2.5095478125       -1.2823923646        0.3158122331
 H         -0.7335288598        1.6389937852        0.7938958246
 H          1.6408066248        1.2946399619        1.5258971517
 H          1.5798846441        1.9519083194       -0.1463025976
 H          2.7529356542       -0.8451788723       -1.6542625577
 H         -2.4283507243        1.2054423749       -1.4591290957
 H         -2.2425887394       -0.4633210457       -2.0231284286
 H         -3.7763869219        0.0663361395       -1.3211443820
  20
  -33.882158980000000        3.6110003394636209E-003 !
 C         -2.1872633630       -0.3346755041        0.0051517534
 C         -0.8480006831        0.0823482755        0.5995515384
 N          0.0969128522       -0.8750060277        0.6080464280
 C          1.4797116669       -0.5501405979        0.8543183021
 C          2.1822416619       -0.1412409706       -0.4287744160
 O          1.6359352614       -0.0937099448       -1.5081997019
 N         -3.2607485618        0.2894450819        0.7615761517
 O         -0.6508021118        1.2148685215        1.0248461326
 O          3.4502834904        0.1526475596       -0.2323167148
 H         -2.9719888845        1.2303791295        1.0158886000
 H         -4.0926905215        0.3634085014        0.1865797307
 C         -2.1394812425        0.0722193792       -1.4800007827
 H         -2.3107431162       -1.4209273313        0.0812090704
 H         -0.0904717702       -1.7388285812        0.1213202472
 H          2.0025357328       -1.3939606680        1.3060238314
 H          1.5144814323        0.3013076984        1.5408640364
 H          3.9142634172        0.4291813322       -1.0478301798
 H         -3.0440616743       -0.2552464864       -1.9864146529
 H         -2.0585403905        1.1552893467       -1.5590234370
 H         -1.2753564124       -0.3682548582       -1.9719740105
  20
  -33.882157460000002        3.6051968722978483E-003 !
 C         -2.1865163958       -0.3334124229        0.0060069472
 C         -0.8468287056        0.0820846263        0.6004165303
 N          0.0964231488       -0.8769949901        0.6105337433
 C          1.4798172627       -0.5534975118        0.8550618758
 C          2.1796465357       -0.1414590973       -0.4285124841
 O          1.6307666130       -0.0907320695       -1.5064710511
 N         -3.2594177795        0.2962330471        0.7586274794
 O         -0.6478114735        1.2148592046        1.0241804359
 O          3.4482599221        0.1513027291       -0.2342435645
 H         -2.9674850044        1.2364570699        1.0120459489
 H         -4.0896188284        0.3726004369        0.1814743030
 C         -2.1356217398        0.0679042239       -1.4805664403
 H         -2.3129574119       -1.4190586195        0.0858400655
 H         -0.0925677838       -1.7410039768        0.1247458508
 H          2.0030328369       -1.3988366785        1.3033830689
 H          1.5165201297        0.2962657469        1.5436176335
 H          3.9102514010        0.4307836014       -1.0498993061
 H         -1.2716055019       -0.3760839505       -1.9695163554
 H         -3.0399532899       -0.2596544776       -1.9872560430
 H         -2.0523746147        1.1505273864       -1.5634070285
  20
  -33.881711170000003        2.2481656214539698E-003 !
 C         -2.2835666529        0.0921483713       -0.3776868742
 C         -1.0348337830       -0.4863838127        0.2999145853
 N          0.1327093770        0.0136157567       -0.1226147411
 C          1.4065529151       -0.3898493984        0.4226955545
 C          2.5233065849        0.3030338372       -0.3213734762
 O          2.3375036023        1.0970573929       -1.2169610856
 N         -3.4591196720       -0.7352987675       -0.1611384219
 O         -1.1086885952       -1.3434582202        1.1768870593
 O          3.7106614802       -0.0506047396        0.1158289679
 H         -3.2981121169       -1.6633846986       -0.5386382509
 H         -3.5942018752       -0.8514174546        0.8396591571
 C         -2.5399478887        1.4977320148        0.1737084707
 H         -2.1086838550        0.1475006321       -1.4574173257
 H          0.1767478202        0.7085302923       -0.8570964742
 H          1.5355614489       -1.4750425113        0.3452618818
 H          1.4753554666       -0.1360818374        1.4868956938
 H          4.4437336788        0.3936832044       -0.3559121262
 H         -1.7226866469        2.1668995029       -0.0764564779
 H         -3.4622733363        1.8807244955       -0.2517063264
 H         -2.6464503645        1.4569422136        1.2555080657
  20
  -33.881654310000002        2.1168849515883115E-003 !
 C         -2.2348334943        0.0483026278        0.1537087286
 C         -0.8611941140       -0.4965250416        0.5461897957
 N         -0.0732266861       -0.9507780127       -0.4467765434
 C          1.3423748600       -1.1183845505       -0.2302036659
 C          2.0459938589        0.2288770461       -0.2372419342
 O          1.4742739531        1.2787561454       -0.4319816117
 N         -2.1402810621        1.5098831932        0.1305727422
 O         -0.4808678118       -0.4578506301        1.7159108943
 O          3.3367393404        0.1238285679       -0.0063302542
 H         -1.8895437316        1.8496334270        1.0529725750
 H         -1.3976632955        1.7944041884       -0.5031980388
 C         -2.7817032192       -0.4524909081       -1.1780361261
 H         -2.9262589802       -0.2148161116        0.9620807346
 H         -0.3821270562       -0.8244746842       -1.3988142480
 H          1.7754016849       -1.7683342064       -0.9899775057
 H          1.4983194659       -1.5639975497        0.7570097969
 H          3.8008466265        0.9847408948        0.0071380664
 H         -3.8103969783       -0.1194000754       -1.2758587727
 H         -2.2222995057       -0.0337575529       -2.0108102240
 H         -2.7570187166       -1.5371519338       -1.2185730295
  20
  -33.881654030000000        2.1162578230101261E-003 !
 C         -2.2350297370        0.0480290154        0.1537856319
 C         -0.8610189335       -0.4959723504        0.5461603999
 N         -0.0732839247       -0.9508407604       -0.4466446569
 C          1.3423148735       -1.1185306708       -0.2301411768
 C          2.0462508443        0.2285618849       -0.2374124876
 O          1.4748780050        1.2785807464       -0.4324782841
 N         -2.1416690272        1.5096652732        0.1309360698
 O         -0.4802485598       -0.4560647215        1.7156748322
 O          3.3369317752        0.1231587198       -0.0061178829
 H         -1.8906091884        1.8493316964        1.0532712040
 H         -1.3996851735        1.7948978756       -0.5032198505
 C         -2.7818079625       -0.4528693809       -1.1779472565
 H         -2.9261264659       -0.2157694547        0.9621835458
 H         -0.3823494057       -0.8255628705       -1.3987113090
 H          1.7751957854       -1.7686565247       -0.9898254661
 H          1.4982743386       -1.5640001317        0.7571056471
 H          3.8013337918        0.9839146178        0.0071673461
 H         -2.7570625418       -1.5375090943       -1.2182914485
 H         -3.8105224771       -0.1198713136       -1.2759032969
 H         -2.2224269584       -0.0342785318       -2.0107661554
  20
  -33.881654009999998        2.1162130352181318E-003 !
 C         -2.2347088377        0.0488075728        0.1544780826
 C         -0.8609931067       -0.4968169985        0.5453732138
 N         -0.0737076683       -0.9494688997       -0.4488176130
 C          1.3419450202       -1.1179465757       -0.2332511258
 C          2.0460177961        0.2290903090       -0.2365833458
 O          1.4749877953        1.2797099292       -0.4294434025
 N         -2.1392417132        1.5103655881        0.1295797982
 O         -0.4796658293       -0.4594319097        1.7147309813
 O          3.3364788952        0.1228770144       -0.0048279635
 H         -1.8873027366        1.8510809069        1.0512874872
 H         -1.3971798365        1.7937023512       -0.5053454933
 C         -2.7839432352       -0.4533565439       -1.1757619282
 H         -2.9249723674       -0.2130697429        0.9642044035
 H         -0.3832791552       -0.8220210911       -1.4004664556
 H          1.7745196249       -1.7657160394       -0.9951070056
 H          1.4981884969       -1.5665527437        0.7525160436
 H          3.8010066032        0.9835130773        0.0108586375
 H         -2.2260135601       -0.0354818411       -2.0099358792
 H         -2.7592904572       -1.5380564470       -1.2153055665
 H         -3.8128043735       -0.1203658469       -1.2720529711
  20
  -33.881629380000000        2.0617700228279931E-003 !
 C         -2.1282976636        0.5685042180        0.0561641218
 C         -0.8898309128       -0.3266736126       -0.0740241349
 N          0.1218238015       -0.0266018406        0.7583314658
 C          1.3890337230       -0.7087618085        0.7012155458
 C          2.4593062406        0.0771359706       -0.0340547633
 O          3.5925648543       -0.3210173404       -0.1855862142
 N         -3.0513909689        0.3981937891       -1.0536769908
 O         -0.8502134493       -1.2698891546       -0.8588825163
 O          2.0290742624        1.2392761967       -0.4826928088
 H         -3.3342509866       -0.5768948259       -1.0987711540
 H         -2.5764158951        0.6001161697       -1.9274184703
 C         -2.8457443808        0.2473035369        1.3703419766
 H         -1.8058143853        1.6156739092        0.0568255661
 H          0.0769589271        0.8248811667        1.2971696275
 H          1.2393276726       -1.6500563701        0.1615279925
 H          1.7561329107       -0.9413273106        1.7039703650
 H          2.7168335552        1.7407038545       -0.9637125779
 H         -3.7564258815        0.8353586665        1.4269613286
 H         -3.1109658786       -0.8072313318        1.3981853995
 H         -2.2163040102        0.4745031239        2.2243798410
  20
  -33.881625980000003        2.0543653862853074E-003 !
 C         -2.1288626722        0.5695726994        0.0588724883
 C         -0.8916715884       -0.3267029628       -0.0758627541
 N          0.1226372943       -0.0289329853        0.7540270559
 C          1.3886414192       -0.7129805744        0.6929301147
 C          2.4607415980        0.0755716880       -0.0367821361
 O          3.5893386420       -0.3300272967       -0.2025657553
 N         -3.0561088052        0.3999798883       -1.0476039726
 O         -0.8552645723       -1.2688372352       -0.8623079993
 O          2.0382182980        1.2492137117       -0.4621466228
 H         -3.3404991508       -0.5747351539       -1.0911814802
 H         -2.5839814335        0.6007593087       -1.9231608933
 C         -2.8420060611        0.2493011588        1.3755956273
 H         -1.8053597858        1.6164350535        0.0582438791
 H          0.0803860077        0.8217287421        1.2943734733
 H          1.2375007738       -1.6512370693        0.1485021114
 H          1.7553103200       -0.9513659360        1.6945876842
 H          2.7274555246        1.7536124281       -0.9379800449
 H         -2.2097330619        0.4768111090        2.2274409813
 H         -3.7523011597        0.8377191378        1.4347935381
 H         -3.1075122860       -0.8051222214        1.4049434593
  20
  -33.881618850000002        2.0389236714294157E-003 !
 C         -2.1313664470        0.5708052091        0.0639381038
 C         -0.8967432079       -0.3275856199       -0.0787747310
 N          0.1244158455       -0.0297209923        0.7422858096
 C          1.3875235046       -0.7184700904        0.6760695690
 C          2.4659269715        0.0749925940       -0.0385987828
 O          3.5911062532       -0.3369800447       -0.2120931110
 N         -3.0626541236        0.4072747836       -1.0399544410
 O         -0.8679886713       -1.2710866751       -0.8639202829
 O          2.0538026660        1.2604643236       -0.4406845017
 H         -2.5923130180        0.6082249770       -1.9164722489
 H         -3.3504089814       -0.5664047864       -1.0847993755
 C         -2.8398642598        0.2450964913        1.3818302603
 H         -1.8060987757        1.6171371290        0.0667845034
 H          0.0869110610        0.8206916813        1.2834180160
 H          1.2335116679       -1.6489723409        0.1193387197
 H          1.7499681602       -0.9719334458        1.6756776095
 H          2.7482817897        1.7688988786       -0.9044399738
 H         -3.7479192871        0.8361354009        1.4488227725
 H         -3.1089479428       -0.8085915032        1.4056901366
 H         -2.2026592280        0.4647306587        2.2321539603
  20
  -33.881617949999999        2.0369827751395013E-003 !
 C         -2.1306026366        0.5692146444        0.0497105212
 C         -0.8965299167       -0.3328469329       -0.0751159840
 N          0.1241441002       -0.0212973390        0.7416162426
 C          1.3886496657       -0.7085264836        0.6851214363
 C          2.4656386426        0.0780623415       -0.0391314111
 O          3.5922736513       -0.3325442253       -0.2056702933
 N         -3.0684148082        0.3746314783       -1.0436679484
 O         -0.8672968348       -1.2896910167       -0.8438969780
 O          2.0499969988        1.2564173210       -0.4582655517
 H         -2.6040062419        0.5526098999       -1.9282206020
 H         -3.3553877803       -0.6001193529       -1.0605399553
 C         -2.8327927619        0.2838486967        1.3802033127
 H         -1.8046310396        1.6149589390        0.0201862764
 H          0.0867448114        0.8385504695        1.2675892225
 H          1.2367117827       -1.6465855094        0.1405973893
 H          1.7513299097       -0.9481325390        1.6881241092
 H          2.7429572942        1.7607612199       -0.9287135279
 H         -3.0997301077       -0.7689900319        1.4387841924
 H         -2.1931834728        0.5320994026        2.2206938071
 H         -3.7416462161        0.8752740949        1.4316736087
  20
  -33.881617589999998        2.0362069340449859E-003 !
 C         -2.1304743267        0.5687712637        0.0459171101
 C         -0.8969279156       -0.3346757201       -0.0742963215
 N          0.1243122191       -0.0190154327        0.7400991159
 C          1.3889205559       -0.7062122705        0.6859766261
 C          2.4659315770        0.0790193703       -0.0396750789
 O          3.5926959195       -0.3316854258       -0.2050962838
 N         -3.0705725457        0.3657368881       -1.0439621702
 O         -0.8686005523       -1.2959349247       -0.8376157223
 O          2.0502715412        1.2565876237       -0.4609887482
 H         -2.6071462298        0.5340233225       -1.9309960398
 H         -3.3598718372       -0.6085031157       -1.0509468031
 C         -2.8302714389        0.2953662327        1.3801698235
 H         -1.8038830947        1.6140153025        0.0067261280
 H          0.0873533826        0.8435332692        1.2616772129
 H          1.2375081800       -1.6456436828        0.1437112572
 H          1.7511822646       -0.9432972791        1.6897430393
 H          2.7433254782        1.7601990854       -0.9320920659
 H         -2.1889438612        0.5501214558        2.2173908919
 H         -3.7384467595        0.8881334739        1.4283380074
 H         -3.0981858098       -0.7566358907        1.4483266820
  20
  -33.881565600000002        1.9272096532675475E-003 !
 C         -2.1759738039       -0.0279326532        0.3311079890
 C         -0.6633164112        0.2098999099        0.2983313811
 N          0.0616162324       -0.4792364525        1.1844879331
 C          1.5013798723       -0.3292267913        1.2374638277
 C          2.0574010041        0.0081689907       -0.1407230081
 O          2.7911190585        0.9463403435       -0.3594398549
 N         -2.9155588854        1.0080119220       -0.3682596932
 O         -0.1367727185        0.9681741407       -0.5163311718
 O          1.7798962613       -0.9284613537       -1.0322703112
 H         -2.7273508034        1.9113661648        0.0536871159
 H         -2.5820104876        1.0608382832       -1.3267292118
 C         -2.4651240952       -1.3876218565       -0.3128081822
 H         -2.5153467104       -0.0312042306        1.3722935614
 H         -0.3821391974       -1.0775691382        1.8636524129
 H          1.9470603967       -1.2745917468        1.5516086910
 H          1.7941338691        0.4730554141        1.9224940462
 H          2.1610074624       -0.7345000813       -1.9095984708
 H         -2.0586262267       -1.4123690418       -1.3214187515
 H         -2.0225545657       -2.1934293338        0.2632635283
 H         -3.5399288194       -1.5291456823       -0.3667272022
  20
  -33.881562109999997        1.9201054017242581E-003 !
 C         -2.1758215370       -0.0264039150        0.3325927196
 C         -0.6626178673        0.2072789620        0.2958698485
 N          0.0625608206       -0.4709086437        1.1900268636
 C          1.5023066518       -0.3194030594        1.2403206902
 C          2.0557778230        0.0102529167       -0.1409520342
 O          2.7817549017        0.9525591620       -0.3679878878
 N         -2.9134634911        1.0095495402       -0.3687033158
 O         -0.1354358424        0.9529126293       -0.5301195769
 O          1.7886738073       -0.9391560667       -1.0224808025
 H         -2.7261632096        1.9130917528        0.0531343867
 H         -2.5778027142        1.0617488256       -1.3264574554
 C         -2.4699169714       -1.3868152089       -0.3076960029
 H         -2.5139863396       -0.0259415993        1.3740645649
 H         -0.3803121618       -1.0594610988        1.8783069329
 H          1.9492338604       -1.2623943183        1.5597592348
 H          1.7950015614        0.4872775906        1.9201818484
 H          2.1683540625       -0.7512739939       -1.9017028734
 H         -3.5453026204       -1.5226297036       -0.3652221778
 H         -2.0597331442       -1.4172459473       -1.3147324485
 H         -2.0339257865       -2.1930056684        0.2729581848
  20
  -33.881550959999998        1.8975834510298944E-003 !
 C         -2.1765012352       -0.0254846010        0.3302515067
 C         -0.6632410670        0.2087073327        0.2978878992
 N          0.0607362994       -0.4824102183        1.1832390950
 C          1.5003978357       -0.3319004250        1.2373655195
 C          2.0570965835        0.0092036132       -0.1396737934
 O          2.7889880391        0.9493717661       -0.3559706637
 N         -2.9127469116        1.0087971476       -0.3751167962
 O         -0.1350483963        0.9664280875       -0.5163045645
 O          1.7838076729       -0.9273035115       -1.0327770161
 H         -2.7197818490        1.9142206102        0.0400988700
 H         -2.5803071067        1.0535717751       -1.3343679488
 C         -2.4697177193       -1.3874344089       -0.3069708123
 H         -2.5166516454       -0.0218489150        1.3712277615
 H         -0.3832145606       -1.0801450764        1.8628253431
 H          1.9464993341       -1.2777142608        1.5494422333
 H          1.7921628260        0.4688638716        1.9246051978
 H          2.1670034121       -0.7317357536       -1.9088074466
 H         -2.0420234848       -2.1928949605        0.2805267062
 H         -3.5450694168       -1.5195732086       -0.3728034054
 H         -2.0513976694       -1.4235468287       -1.3104248516
  20
  -33.881455199999998        1.7147177173306135E-003 !
 C         -2.1143282669        0.3298552376        0.4698691166
 C         -0.6567949853        0.0122896236        0.1221566409
 N          0.0370608990       -0.6622565854        1.0430576987
 C          1.3898503695       -1.1059460762        0.7737297763
 C          2.0776005815       -0.1741308104       -0.2176448728
 O          2.5885175078       -0.5493214534       -1.2497092156
 N         -2.6457899906        1.4260351485       -0.3202600565
 O         -0.1460186802        0.3628366313       -0.9419127422
 O          2.2091317999        1.0526628871        0.2610650501
 H         -2.0941700543        2.2629378744       -0.1631665141
 H         -2.5537117764        1.1972771859       -1.3061126611
 C         -2.9549275278       -0.9287070752        0.2321182612
 H         -2.1742019598        0.6212007227        1.5235418195
 H         -0.3996872973       -0.9670228117        1.8993614863
 H          1.3995601049       -2.1144418296        0.3476424924
 H          1.9634287853       -1.0815836730        1.7021371420
 H          2.6796146013        1.6456213010       -0.3550574997
 H         -2.6554752133       -1.7297562377        0.9002815049
 H         -4.0002684504       -0.6902580434        0.4007316285
 H         -2.8365312429       -1.2637855888       -0.7961543968
  20
  -33.881446380000000        1.6987882321220739E-003 !
 C         -2.1054704284        0.3516823493        0.4637239664
 C         -0.6563005151        0.0073052628        0.1057122250
 N          0.0380171389       -0.6616442142        1.0309891110
 C          1.3853319709       -1.1172891853        0.7552590180
 C          2.0849367093       -0.1679812546       -0.2098930505
 O          2.6265375625       -0.5235952508       -1.2329821525
 N         -2.6510254667        1.3993061278       -0.3810957645
 O         -0.1511110241        0.3331857121       -0.9687607310
 O          2.1778566582        1.0580686273        0.2791714188
 H         -2.0847697968        2.2371752890       -0.2989235720
 H         -2.5937914942        1.1044340212       -1.3518548531
 C         -2.9592576706       -0.9130189406        0.3289015991
 H         -2.1376897869        0.7112434466        1.4976270474
 H         -0.3910149588       -0.9401899906        1.8997586633
 H          1.3848042206       -2.1148948101        0.3041267960
 H          1.9563931063       -1.1236250633        1.6852395939
 H          2.6516330590        1.6625658402       -0.3225345592
 H         -3.9983786846       -0.6561044731        0.5085635065
 H         -2.8699865216       -1.3146200073       -0.6782114507
 H         -2.6488287530       -1.6721326602        1.0393887412
  20
  -33.881442759999999        1.6922931910494795E-003 !
 C         -2.1065417919        0.3495868129        0.4646640225
 C         -0.6562272998        0.0093012337        0.1073361403
 N          0.0373164657       -0.6637978483        1.0301608062
 C          1.3847355355       -1.1186422473        0.7537215974
 C          2.0840838700       -0.1687567634       -0.2112171591
 O          2.6217623601       -0.5234091916       -1.2367211253
 N         -2.6520699046        1.4006066236       -0.3758642084
 O         -0.1496708455        0.3415096966       -0.9645425800
 O          2.1832395202        1.0553716020        0.2813334942
 H         -2.0879883530        2.2393178176       -0.2874286551
 H         -2.5914370377        1.1113083582       -1.3481202720
 C         -2.9579146315       -0.9158055115        0.3216845973
 H         -2.1413027640        0.7036212219        1.5003676772
 H         -0.3931645374       -0.9481692476        1.8963743647
 H          1.3842535836       -2.1160670055        0.3022040101
 H          1.9558918073       -1.1250372076        1.6836638884
 H          2.6580370750        1.6597203793       -0.3197224418
 H         -2.8663271319       -1.3115198030       -0.6875611327
 H         -2.6469279532       -1.6781806722        1.0285149665
 H         -3.9977597217       -0.6618030400        0.5013171390
  20
  -33.881287919999998        1.4365345313492549E-003 !
 C         -2.3953128561        0.0445690869        0.2431790584
 C         -1.0955129384       -0.7101754117        0.5160137347
 N          0.0024976937       -0.0539775612        0.1421371113
 C          1.3349702078       -0.5860822085        0.2619263259
 C          2.3414127363        0.4011123119       -0.2799912459
 O          2.0518470905        1.4943333664       -0.7098356599
 N         -2.1536443870        1.4802794601        0.2754640723
 O         -1.0821645062       -1.8376740906        1.0051433145
 O          3.5711546566       -0.0657585442       -0.2271814559
 H         -2.9779580106        1.9722343046       -0.0495785579
 H         -1.9650258681        1.7843424270        1.2237608358
 C         -2.8902541316       -0.3662870337       -1.1464302580
 H         -3.1266635752       -0.3021337727        0.9947772288
 H         -0.0986723916        0.8855929572       -0.2293997133
 H          1.4263262294       -1.5309571394       -0.2855070052
 H          1.5785375636       -0.8022987863        1.3089205920
 H          4.2357680717        0.5631665829       -0.5733335165
 H         -2.1992312391       -0.0031784489       -1.9017592198
 H         -2.9547244586       -1.4493061368       -1.2090284013
 H         -3.8741193578        0.0561989114       -1.3337493893
  20
  -33.880753460000001        8.1600958538009870E-004 !
 C         -2.2966144140       -0.0244177426        0.1218789568
 C         -0.9231949457       -0.6036695446        0.4737047870
 N          0.0133655559        0.2928140581        0.8423987727
 C          1.4030783761       -0.0740304291        0.9405091610
 C          2.1332526992        0.1985582608       -0.3620356365
 O          1.6086407451        0.6978447651       -1.3324920032
 N         -2.6491778692        1.2311977107        0.7547132195
 O         -0.7031881792       -1.8101048125        0.4372987407
 O          3.3978233758       -0.1622645415       -0.3114192304
 H         -2.5050335575        1.1883498358        1.7554351599
 H         -2.1097508822        1.9982886453        0.3708177518
 C         -2.3344469529        0.1299719344       -1.4019061943
 H         -3.0387601737       -0.7732503931        0.4235382829
 H         -0.1804993052        1.2721876439        0.6829555978
 H          1.4561936188       -1.1477276484        1.1447955165
 H          1.8921429582        0.4684298016        1.7520222149
 H          3.8805988761       -0.0014193283       -1.1467874776
 H         -1.5313880375        0.7848908168       -1.7365431364
 H         -2.2079679529       -0.8396370815       -1.8754161781
 H         -3.2889667668        0.5543749469       -1.6967878201
  20
  -33.880752800000003        8.1543987624172354E-004 !
 C         -2.2963539754       -0.0223057894        0.1231478814
 C         -0.9247558408       -0.6054472992        0.4757531970
 N          0.0143275516        0.2883389432        0.8445241286
 C          1.4035768719       -0.0812515898        0.9394813089
 C          2.1330239758        0.2004406887       -0.3614706298
 O          1.6075023002        0.7060980331       -1.3282082051
 N         -2.6422270048        1.2394214341        0.7472728135
 O         -0.7081851219       -1.8125024404        0.4391192785
 O          3.3978762280       -0.1597972838       -0.3140280820
 H         -2.4967556750        1.2033912924        1.7480580763
 H         -2.1002156079        2.0012498177        0.3565710153
 C         -2.3357124242        0.1216138669       -1.4016468784
 H         -3.0414872706       -0.7655566778        0.4311341569
 H         -0.1775612518        1.2682644872        0.6859411594
 H          1.4550572580       -1.1565922200        1.1356298604
 H          1.8941126243        0.4542149699        1.7547595925
 H          3.8801899473        0.0077568998       -1.1483475332
 H         -2.2134791453       -0.8518865422       -1.8682131109
 H         -3.2889126082        0.5475863874       -1.6985504523
 H         -1.5304279035        0.7710847580       -1.7416825567
  20
  -33.880751969999999        8.1472398842183857E-004 !
 C         -2.2969895270       -0.0229333026        0.1234078834
 C         -0.9245677791       -0.6048201519        0.4748623938
 N          0.0140581521        0.2896920495        0.8428982510
 C          1.4032776756       -0.0794811516        0.9392127891
 C          2.1339498343        0.2002212855       -0.3614798542
 O          1.6097016720        0.7049162637       -1.3293587256
 N         -2.6438249382        1.2376665846        0.7493019611
 O         -0.7070697101       -1.8116960582        0.4382635573
 O          3.3984803223       -0.1609527139       -0.3124703967
 H         -2.4973539125        1.2006551065        1.7499165540
 H         -2.1030046656        2.0005568578        0.3590432608
 C         -2.3379695498        0.1223920528       -1.4011812741
 H         -3.0409188982       -0.7674445431        0.4312650170
 H         -0.1782088120        1.2695140834        0.6841917051
 H          1.4547932319       -1.1544554688        1.1372168568
 H          1.8929908576        0.4574543582        1.7540274683
 H          3.8815961161        0.0050174467       -1.1466361286
 H         -3.2922514186        0.5468844427       -1.6967137942
 H         -1.5343154062        0.7738088480       -1.7412369735
 H         -2.2143022288       -0.8503468804       -1.8689795081
  20
  -33.880711910000002        7.8090859412775651E-004 !
 C         -2.1475116956       -0.5369183236        0.2156710298
 C         -0.8993066437        0.2917070923        0.4973254817
 N          0.1925155335       -0.4176024810        0.8250708918
 C          1.4931252128        0.1911129019        0.9314778950
 C          2.3601915311       -0.0314036352       -0.2940366391
 O          3.4843009391        0.4051131008       -0.4016689984
 N         -3.3168230640        0.2030068600        0.6625874805
 O         -0.8963060499        1.5143321399        0.4018363267
 O          1.7699029989       -0.7549047819       -1.2249469228
 H         -3.1663310485        1.1910994395        0.4769165422
 H         -4.1363380906       -0.0914714432        0.1434596106
 C         -2.1338604171       -0.8494038080       -1.2923631147
 H         -2.1104673917       -1.4753259045        0.7807419134
 H          0.1507832927       -1.4252682894        0.8065739972
 H          2.0301653173       -0.1795867134        1.8080311934
 H          1.3504866467        1.2708701521        1.0465573708
 H          2.3359998363       -0.8889342833       -2.0110814796
 H         -2.1605682837        0.0793611962       -1.8599975456
 H         -1.2327382374       -1.3938036825       -1.5609165393
 H         -3.0019831382       -1.4495687787       -1.5539734793
  20
  -33.880707889999996        7.7759370893579443E-004 !
 C         -2.1473305412       -0.5367081098        0.2191404426
 C         -0.8990802129        0.2942511917        0.4935084681
 N          0.1926346536       -0.4120361415        0.8280310043
 C          1.4929051024        0.1980627019        0.9307225551
 C          2.3606312440       -0.0323867466       -0.2928301495
 O          3.4855907550        0.4016734415       -0.4017126494
 N         -3.3160727778        0.2051133719        0.6644860789
 O         -0.8959664891        1.5159382750        0.3869239795
 O          1.7698506337       -0.7595496727       -1.2205388426
 H         -3.1677212108        1.1918890953        0.4703599438
 H         -4.1369028253       -0.0946892958        0.1504826001
 C         -2.1366486684       -0.8574561675       -1.2871733819
 H         -2.1084883066       -1.4718681278        0.7894002743
 H          0.1512000052       -1.4198542995        0.8184048233
 H          2.0297438115       -0.1659925855        1.8101203776
 H          1.3495521413        1.2785872673        1.0379529094
 H          2.3363837591       -0.8984423439       -2.0054759544
 H         -3.0041777512       -1.4607946673       -1.5432554632
 H         -2.1668895955        0.0681865443       -1.8597115584
 H         -1.2350536927       -1.4014079790       -1.5551292012
  20
  -33.880706470000000        7.7642614554475906E-004 !
 C         -2.1457627791       -0.5450371276        0.2277476686
 C         -0.9045789813        0.3025070368        0.4830417513
 N          0.1953856188       -0.3869417005        0.8250338766
 C          1.4896953505        0.2375885474        0.9156636383
 C          2.3683894707       -0.0284010312       -0.2926104075
 O          3.4860145656        0.4209090252       -0.4140684633
 N         -3.3178988489        0.1861511484        0.6818029602
 O         -0.9143766496        1.5222400719        0.3557242029
 O          1.7965746090       -0.8062109733       -1.1906328191
 H         -3.1858993887        1.1724707743        0.4741828281
 H         -4.1417703995       -0.1306376184        0.1830331344
 C         -2.1482467510       -0.8753672338       -1.2764948073
 H         -2.0899106735       -1.4760234869        0.8032539688
 H          0.1640995162       -1.3951434030        0.8345285677
 H          2.0236623413       -0.0922557639        1.8104189614
 H          1.3364516102        1.3196888575        0.9862428170
 H          2.3708878807       -0.9717794231       -1.9646368151
 H         -1.2433214298       -1.4105490101       -1.5509864190
 H         -3.0114299526       -1.4904392037       -1.5190521017
 H         -2.1958250475        0.0461875129       -1.8544280277
  20
  -33.880700460000000        7.7150393719158735E-004 !
 C         -2.2570320136       -0.1067738420       -0.1484766130
 C         -0.8468266347       -0.4858941642        0.3139206857
 N         -0.0159299080        0.5419705076        0.5808274599
 C          1.3726779498        0.3026559886        0.8841706517
 C          2.1860593640        0.1064451346       -0.3836549136
 O          1.7201310668        0.1757637236       -1.4987082492
 N         -3.0979034524        0.1958848187        1.0071355285
 O         -0.5436582538       -1.6525962667        0.5530868367
 O          3.4533597815       -0.1441259350       -0.1287755817
 H         -3.1390701263       -0.6068824841        1.6245600750
 H         -2.7013343760        0.9712901096        1.5281190124
 C         -2.2828327031        1.0577783656       -1.1352889731
 H         -2.6718229149       -1.0026015071       -0.6246659561
 H         -0.2436770635        1.4444887159        0.1902352951
 H          1.4463262415       -0.6180356100        1.4709397205
 H          1.7882355725        1.1298551386        1.4608361179
 H          3.9897960287       -0.2821066648       -0.9349082870
 H         -3.2620480696        1.1056363454       -1.6012077226
 H         -2.1133188114        2.0032760374       -0.6263875100
 H         -1.5310363157        0.9144321118       -1.9075512496
  20
  -33.880700279999999        7.7135699891794029E-004 !
 C         -2.2592432204       -0.1068590510       -0.1554985232
 C         -0.8491237906       -0.4829661431        0.3095387505
 N         -0.0144831669        0.5443750708        0.5649631260
 C          1.3719453164        0.3044185299        0.8776570669
 C          2.1949646145        0.1085806626       -0.3838772937
 O          1.7385887568        0.1806964435       -1.5026532543
 N         -3.1083833387        0.1612922567        1.0029663642
 O         -0.5506876466       -1.6480984093        0.5629849796
 O          3.4595495160       -0.1454293451       -0.1189215502
 H         -2.7228420491        0.9302339523        1.5416019241
 H         -3.1412548659       -0.6548732371        1.6032002146
 C         -2.2950052457        1.0783071955       -1.1165355196
 H         -2.6627895123       -0.9966904856       -0.6522532313
 H         -0.2383618620        1.4441572416        0.1660443457
 H          1.4409089858       -0.6164422880        1.4647641133
 H          1.7837330620        1.1312316777        1.4577425971
 H          4.0021571671       -0.2841052110       -0.9207328356
 H         -1.5450051412        0.9564621292       -1.8941666701
 H         -3.2760082761        1.1289510880       -1.5784816096
 H         -2.1312311528        2.0137688053       -0.5875818458
  20
  -33.880700179999998        7.7127537863585106E-004 !
 C         -2.2580394372       -0.1069411092       -0.1535751519
 C         -0.8479670169       -0.4837014166        0.3109562760
 N         -0.0150018756        0.5440690388        0.5706699329
 C          1.3722644634        0.3046091610        0.8800017444
 C          2.1917179728        0.1080676747       -0.3837533534
 O          1.7320867631        0.1803544636       -1.5012154634
 N         -3.1052565377        0.1712344872        1.0038142943
 O         -0.5477295742       -1.6493516754        0.5597527718
 O          3.4568258794       -0.1469693776       -0.1224653917
 H         -3.1408149994       -0.6410886635        1.6090659909
 H         -2.7167942872        0.9421669252        1.5374880769
 C         -2.2905940955        1.0722385854       -1.1223195612
 H         -2.6645919103       -0.9986924425       -0.6444143225
 H         -0.2403791882        1.4447119340        0.1745543527
 H          1.4431240890       -0.6157838616        1.4676075434
 H          1.7853044879        1.1321063321        1.4581290609
 H          3.9969982674       -0.2858762521       -0.9258788834
 H         -2.1262539759        2.0107265388       -0.5989525034
 H         -1.5392195209        0.9445684703       -1.8977251418
 H         -3.2706304623        1.1216089514       -1.5863915747
  20
  -33.880514450000000        6.3365646395481382E-004 !
 C         -2.2013533175        0.4865758539        0.0235789450
 C         -0.9317939298       -0.3574706371       -0.0211157658
 N          0.0973368799        0.1192655512        0.6994466390
 C          1.3881577999       -0.5225039965        0.6987046766
 C          2.4201806642        0.2949968363       -0.0524534662
 O          2.1949008902        1.3721448792       -0.5560200036
 N         -2.9019149511        0.3397202796       -1.2426477393
 O         -0.8951445489       -1.4394560542       -0.5965924442
 O          3.5970967805       -0.2961943083       -0.0772665505
 H         -2.8073393164       -0.6227177595       -1.5559062592
 H         -3.8893402040        0.5333032746       -1.1186643723
 C         -3.0127765218        0.0223937375        1.2471742784
 H         -1.9414762209        1.5451517002        0.1404525240
 H          0.0696777996        1.0762758940        1.0191826479
 H          1.2802187559       -1.4938732884        0.2061280885
 H          1.7448968488       -0.6854155079        1.7197159099
 H          4.2771216704        0.2199490217       -0.5547428241
 H         -3.2469679829       -1.0365641780        1.1529225320
 H         -2.4472999458        0.1751936052        2.1616653925
 H         -3.9406515343        0.5862421036        1.3084487377
  20
  -33.880512279999998        6.3220307884068639E-004 !
 C         -2.2004459687        0.4863251066        0.0336576992
 C         -0.9260413320       -0.3496184614       -0.0213633504
 N          0.0948315754        0.1147100739        0.7189957927
 C          1.3875598114       -0.5230653853        0.7139594762
 C          2.4134092005        0.2912263611       -0.0494559873
 O          2.1860345314        1.3688263808       -0.5509187600
 N         -2.8877411075        0.3702737889       -1.2430233848
 O         -0.8796101419       -1.4177263450       -0.6216032886
 O          3.5877181875       -0.3044956179       -0.0882642398
 H         -2.7859111962       -0.5831729421       -1.5805481628
 H         -3.8772326597        0.5564096078       -1.1238731278
 C         -3.0204837346       -0.0161181917        1.2362142954
 H         -1.9480996941        1.5426971708        0.1820864696
 H          0.0605828543        1.0644287500        1.0589431015
 H          1.2793055807       -1.4972910405        0.2272403174
 H          1.7508147511       -0.6782356090        1.7335944614
 H          4.2644368776        0.2092474626       -0.5729699507
 H         -2.4643192191        0.1146254410        2.1597906584
 H         -3.9521966267        0.5404432414        1.3042823431
 H         -3.2473709472       -1.0734111996        1.1107717288
  20
  -33.880511730000002        6.3183523917631902E-004 !
 C         -2.1984342186        0.4865524053        0.0441506068
 C         -0.9206668526       -0.3435565112       -0.0206598145
 N          0.0932349260        0.1062797947        0.7381598999
 C          1.3879566552       -0.5272923668        0.7259372447
 C          2.4063681646        0.2869380544       -0.0479721986
 O          2.1716104708        1.3596877669       -0.5562380622
 N         -2.8729746681        0.4018963037       -1.2417710436
 O         -0.8662250659       -1.3971428677       -0.6453591245
 O          3.5832559410       -0.3038229049       -0.0884429212
 H         -2.7644384028       -0.5418322355       -1.6035268867
 H         -3.8642136501        0.5814321791       -1.1273403194
 C         -3.0284643430       -0.0499189251        1.2249163705
 H         -1.9513969373        1.5394966748        0.2227202733
 H          0.0530046127        1.0475982295        1.0999974983
 H          1.2797261179       -1.5027515255        0.2417973428
 H          1.7581700029       -0.6783642284        1.7434826355
 H          4.2549344472        0.2091420293       -0.5809803487
 H         -3.9625678129        0.5019344961        1.2984023164
 H         -3.2507343361       -1.1041266116        1.0690480926
 H         -2.4819077674        0.0578767769        2.1571591979
  20
  -33.879881230000002        3.2422470686063726E-004 !
 C         -2.1331580365        0.5154674557        0.3372395374
 C         -0.9100224008       -0.2958330973       -0.0790543184
 N          0.1477375150       -0.2048363511        0.7430024678
 C          1.3935211909       -0.8684927138        0.4540935789
 C          2.4654322593        0.0683039164       -0.0727680469
 O          3.5407716681       -0.3140879798       -0.4769068995
 N         -2.7626834263        1.0430414844       -0.8640091136
 O         -0.9325737705       -1.0377054635       -1.0555083491
 O          2.1120330475        1.3358330886       -0.0254639358
 H         -2.7366510219        0.3270822464       -1.5850715519
 H         -3.7350834569        1.2629689498       -0.6785564231
 C         -3.0365819904       -0.4161830652        1.1651489582
 H         -1.8291588360        1.3682953986        0.9542553745
 H          0.1597489949        0.5077576159        1.4571694063
 H          1.2029326437       -1.6284447705       -0.3101635909
 H          1.7852405999       -1.3668129042        1.3453729664
 H          2.8009946425        1.9405545976       -0.3654917202
 H         -3.9406220279        0.1116100208        1.4597500909
 H         -3.3116151969       -1.2853700666        0.5700112300
 H         -2.5200751986       -0.7550565971        2.0585214134
  20
  -33.879881099999999        3.2418010784849736E-004 !
 C         -2.1346541562        0.5227282921        0.3271949188
 C         -0.9172568699       -0.2975101366       -0.0880651741
 N          0.1480978933       -0.1937359211        0.7222047257
 C          1.3906631122       -0.8642194096        0.4357003862
 C          2.4744446900        0.0699294450       -0.0705488213
 O          3.5542604962       -0.3156488560       -0.4597479225
 N         -2.7917319714        1.0088988435       -0.8765112151
 O         -0.9502934887       -1.0561931735       -1.0510342547
 O          2.1257797881        1.3389305440       -0.0247242360
 H         -2.7714946832        0.2719847390       -1.5762911960
 H         -3.7626671932        1.2247919958       -0.6793391193
 C         -3.0160162304       -0.3843710367        1.2049714379
 H         -1.8200984237        1.3962972649        0.9088774773
 H          0.1654979640        0.5277475838        1.4272345167
 H          1.1989486883       -1.6142776678       -0.3382843874
 H          1.7718088473       -1.3768618856        1.3236144077
 H          2.8228915044        1.9415487624       -0.3514380913
 H         -3.3027259016       -1.2724175370        0.6442869069
 H         -2.4787122317       -0.6935334961        2.0969053241
 H         -3.9144901549        0.1506748235        1.5031156453
  20
  -33.879772279999997        2.8891903325526042E-004 !
 C         -2.2717632854        0.0467083916        0.2458351045
 C         -0.9195019866       -0.6335354145        0.4714871159
 N         -0.0702181216       -0.6269225706       -0.5695951466
 C          1.3111004975       -1.0076119987       -0.4329922991
 C          2.2411837403        0.1810377619       -0.2706001878
 O          3.4417398758        0.0778149729       -0.1559522224
 N         -2.1361395491        1.4674465460        0.5638438002
 O         -0.6079726340       -1.0870347864        1.5719650002
 O          1.6083033923        1.3386011740       -0.2718333114
 H         -1.8513290171        1.5804261123        1.5300650947
 H         -1.4181710289        1.8841470708       -0.0212538367
 C         -2.8408302069       -0.1172928392       -1.1598682368
 H         -2.9645094379       -0.3837992620        0.9774447557
 H         -0.3477019176       -0.1790331079       -1.4295011602
 H          1.6436624412       -1.5974299067       -1.2901171708
 H          1.4040926943       -1.6231497489        0.4686193945
 H          2.2140555201        2.0980273415       -0.1596587515
 H         -2.2836111798        0.4736415724       -1.8817865271
 H         -2.8313199610       -1.1624320013       -1.4542022840
 H         -3.8657059095        0.2409172280       -1.1641417281
  20
  -33.879772080000002        2.8885789320063580E-004 !
 C         -2.2704478177        0.0473997174        0.2485029932
 C         -0.9178424133       -0.6337407047        0.4696281389
 N         -0.0714698196       -0.6263049088       -0.5739487533
 C          1.3102230395       -1.0069391322       -0.4411921159
 C          2.2397076557        0.1811517514       -0.2712307838
 O          3.4409150049        0.0781915759       -0.1630256661
 N         -2.1326020738        1.4681827809        0.5654972086
 O         -0.6035272248       -1.0892381829        1.5685749106
 O          1.6055096354        1.3379241971       -0.2574277517
 H         -1.8441123464        1.5814222851        1.5305794102
 H         -1.4165059770        1.8841728757       -0.0223661704
 C         -2.8444250188       -0.1172467428       -1.1551417341
 H         -2.9609374568       -0.3824151523        0.9826811017
 H         -0.3508814761       -0.1762885150       -1.4321683227
 H          1.6422669155       -1.5911459299       -1.3022671518
 H          1.4044699611       -1.6280188962        0.4564862392
 H          2.2109122772        2.0966641159       -0.1390922516
 H         -3.8689676155        0.2418886415       -1.1559035713
 H         -2.2893357123        0.4728562923       -1.8793775088
 H         -2.8369037964       -1.1626086109       -1.4488906940
  20
  -33.879766410000002        2.8712994502113227E-004 !
 C         -2.2808637640        0.0347316874        0.2234885658
 C         -0.9234462382       -0.6205365723        0.4895415824
 N         -0.0613776012       -0.6525238865       -0.5400077613
 C          1.3193002497       -1.0224554481       -0.3709193789
 C          2.2475664725        0.1746380463       -0.2761669362
 O          3.4475279650        0.0794162923       -0.1489268276
 N         -2.1845601576        1.4528700217        0.5680629037
 O         -0.6215946677       -1.0221889333        1.6129880130
 O          1.6142721346        1.3294365542       -0.3520110461
 H         -1.9317730067        1.5547620118        1.5444984058
 H         -1.4566602958        1.8919757482        0.0122403346
 C         -2.7984778766       -0.1155371593       -1.2031062049
 H         -2.9896936508       -0.4200625147        0.9245439235
 H         -0.3305374237       -0.2450385510       -1.4223480530
 H          1.6586077185       -1.6638092713       -1.1876023849
 H          1.4055765011       -1.5818945600        0.5672555240
 H          2.2190624071        2.0948937522       -0.2845273396
 H         -2.7637550596       -1.1552249526       -1.5141394359
 H         -3.8280198998        0.2274526715       -1.2363472208
 H         -2.2267182852        0.4973551913       -1.8948532246
  20
  -33.879647079999998        2.5306857336227255E-004 !
 C         -2.2561690950       -0.1901011449       -0.2290374316
 C         -0.8794882840       -0.4716305106        0.3842990841
 N          0.0198882215        0.5255977048        0.3542831589
 C          1.3642863710        0.3542573742        0.8412161458
 C          2.3766151520        0.1386759775       -0.2686800113
 O          3.5556640919       -0.0482438928       -0.0664443185
 N         -3.2260289933        0.0370988124        0.8415586210
 O         -0.6657883588       -1.5321041595        0.9717994468
 O          1.8415315649        0.1866881875       -1.4720399301
 H         -3.2309938692       -0.7581155549        1.4710541159
 H         -2.9565754434        0.8551492847        1.3791005019
 C         -2.3010428796        0.9682700261       -1.2186820377
 H         -2.5570847970       -1.1164944986       -0.7335125561
 H         -0.1561720556        1.3259004563       -0.2340491618
 H          1.3806474189       -0.5312453132        1.4857692364
 H          1.6793344378        1.2177237103        1.4330565236
 H          2.4927572956        0.0386153290       -2.1860956687
 H         -2.1481031734        1.9188984539       -0.7140423893
 H         -1.5593794424        0.8330166079       -2.0009065586
 H         -3.2867527860        0.9925878831       -1.6735935494
  20
  -33.879635649999997        2.5002610337742926E-004 !
 C         -2.1263571229        0.2763965288        0.4682878990
 C         -0.6667278201       -0.0205445302        0.1504971926
 N          0.0593376360       -0.5469561492        1.1388882164
 C          1.4225700458       -0.9787975978        0.9069489836
 C          2.0670902979       -0.1657728957       -0.2108410434
 O          2.5799665991       -0.6596943996       -1.1907662581
 N         -2.4899583707        1.5317973519       -0.1691269922
 O         -0.1897602558        0.1802722567       -0.9653380045
 O          2.1548472823        1.1165407871        0.0962465561
 H         -2.0736965103        1.5613639986       -1.0956529719
 H         -3.4966338933        1.5879103354       -0.2765931967
 C         -2.9463973359       -0.9362305567       -0.0094799670
 H         -2.2575521426        0.4018733384        1.5486692153
 H         -0.3421497609       -0.7111498417        2.0492249496
 H          1.4592692247       -2.0339996843        0.6172255403
 H          2.0069818438       -0.8150209356        1.8139801134
 H          2.5833266101        1.6421444820       -0.6053815507
 H         -2.6485325221       -1.8355952139        0.5219319932
 H         -4.0044412483       -0.7579633225        0.1669765699
 H         -2.7859345951       -1.0921803529       -1.0751172922
  20
  -33.879626889999997        2.4771912382580278E-004 !
 C         -2.1264041899        0.2738862127        0.4651149122
 C         -0.6685548386       -0.0350918275        0.1498895714
 N          0.0651829737       -0.5224912743        1.1526010624
 C          1.4291656600       -0.9554615862        0.9275880605
 C          2.0694128011       -0.1622758913       -0.2065652371
 O          2.5969402980       -0.6727635296       -1.1699495126
 N         -2.4713747616        1.5394783239       -0.1629960167
 O         -0.1993307353        0.1244539061       -0.9758836515
 O          2.1310273151        1.1292046045        0.0657278458
 H         -2.0694249846        1.5625209641       -1.0958777974
 H         -3.4782505173        1.6178839512       -0.2544778938
 C         -2.9583116240       -0.9246688497       -0.0266456384
 H         -2.2615565177        0.3918983584        1.5457021671
 H         -0.3280954730       -0.6481983204        2.0724590729
 H          1.4685685965       -2.0161754049        0.6591885163
 H          2.0143138161       -0.7721767435        1.8302632455
 H          2.5558825017        1.6444554005       -0.6457779513
 H         -4.0152809712       -0.7359095095        0.1452373594
 H         -2.7930656627       -1.0740111030       -1.0924984843
 H         -2.6733036726       -1.8314119608        0.4993956033
  20
  -33.879605079999997        2.4206742658898758E-004 !
 C         -2.2738961351       -0.1880135986       -0.1732376597
 C         -0.8908297801       -0.5109339383        0.4016016419
 N          0.0071527539        0.4894673273        0.3951375020
 C          1.3594803948        0.3032953335        0.8532538982
 C          2.3558021006        0.1387903590       -0.2795931459
 O          3.5367194376       -0.0613851562       -0.1028779717
 N         -3.1464970195        0.2889605617        0.8979897745
 O         -0.6687670926       -1.5916386318        0.9462871635
 O          1.8054638863        0.2509438175       -1.4717228297
 H         -3.2129018460       -0.4120021423        1.6272561986
 H         -2.7579781627        1.1312995602        1.3100228973
 C         -2.2630839398        0.8180697998       -1.3199396500
 H         -2.6887714123       -1.1410998591       -0.5215236630
 H         -0.1766311886        1.3048964204       -0.1701185120
 H          1.3884758170       -0.6070999330        1.4614014395
 H          1.6813271642        1.1435151773        1.4745199243
 H          2.4476075226        0.1431034403       -2.2010972059
 H         -3.2451566273        0.8287824298       -1.7826896253
 H         -2.0613792531        1.8222419777       -0.9561264911
 H         -1.5252892675        0.5373527369       -2.0664212654
  20
  -33.879602509999998        2.4141000387439894E-004 !
 C         -2.2765227195       -0.1871762862       -0.1649750586
 C         -0.8928441462       -0.5166289224        0.4044115379
 N          0.0055302389        0.4835944349        0.4005624745
 C          1.3588293221        0.2954186704        0.8547779648
 C          2.3532921971        0.1400403190       -0.2809493045
 O          3.5350823038       -0.0578446005       -0.1076094973
 N         -3.1340957760        0.3236132637        0.9026462047
 O         -0.6699968943       -1.6001424020        0.9428657369
 O          1.8003043641        0.2571807708       -1.4713720586
 H         -3.2083226800       -0.3625428748        1.6450650499
 H         -2.7293412927        1.1667975478        1.2968357925
 C         -2.2592432333        0.7955297136       -1.3319827439
 H         -2.7067025317       -1.1409981278       -0.4916342194
 H         -0.1793897862        1.3013950532       -0.1609376704
 H          1.3895932968       -0.6193413003        1.4562629925
 H          1.6811096040        1.1312827257        1.4817058324
 H          2.4413688669        0.1554369725       -2.2025804596
 H         -2.0470874999        1.8049068914       -0.9892472933
 H         -1.5251338107        0.4931010713       -2.0736067040
 H         -3.2419672787        0.8062381877       -1.7933226373
  20
  -33.879561789999997        2.3122865164695373E-004 !
 C         -2.2924783813       -0.0623182857        0.0607480510
 C         -0.9237377146       -0.6101004615        0.4801216830
 N          0.0206908034        0.3203827547        0.7124921269
 C          1.3993275120       -0.0292325650        0.9343477099
 C          2.2628601910        0.1438632140       -0.3019390215
 O          3.4403395223       -0.1350594238       -0.3365497889
 N         -2.7615565924        1.0876864111        0.8128123816
 O         -0.7140666617       -1.8122139612        0.6121651041
 O          1.6021318114        0.6427766765       -1.3276907913
 H         -2.7453568344        0.8981701295        1.8069268758
 H         -2.1917614138        1.9048999948        0.6280070427
 C         -2.2308988381        0.2754320449       -1.4311153558
 H         -3.0107768482       -0.8759237806        0.2157644406
 H         -0.1698337367        1.2789525404        0.4576534065
 H          1.4360706810       -1.0843031493        1.2252846229
 H          1.8299154364        0.5670982045        1.7431855514
 H          2.1599071489        0.7461929635       -2.1239091507
 H         -1.9672391996       -0.6110943727       -2.0013095581
 H         -3.2025839855        0.6341942649       -1.7557946306
 H         -1.4872199277        1.0461138168       -1.6195973445
  20
  -33.879559960000002        2.3078131143586898E-004 !
 C         -2.2918771168       -0.0608816082        0.0649395745
 C         -0.9219304891       -0.6092851084        0.4793012916
 N          0.0208817507        0.3208449470        0.7195205754
 C          1.4001113313       -0.0285300058        0.9378355475
 C          2.2606684780        0.1436423356       -0.3006850019
 O          3.4380082895       -0.1355179551       -0.3379597758
 N         -2.7540995080        1.0962343593        0.8098416575
 O         -0.7097308127       -1.8121708504        0.5995305389
 O          1.5974609011        0.6413944802       -1.3254020165
 H         -2.7256751291        0.9182201284        1.8057596310
 H         -2.1892152770        1.9128144298        0.6081798756
 C         -2.2369090903        0.2650854595       -1.4298184233
 H         -3.0113320947       -0.8715254093        0.2298960787
 H         -0.1716471130        1.2813421783        0.4736971424
 H          1.4378304555       -1.0835038587        1.2287569925
 H          1.8325197911        0.5680703615        1.7454070302
 H          2.1534351158        0.7434155493       -2.1230823452
 H         -1.4911673324        1.0315381936       -1.6273748003
 H         -1.9790557394       -0.6267667280       -1.9942409604
 H         -3.2088324570        0.6247377324       -1.7527009936
  20
  -33.879549570000002        2.2825785067870873E-004 !
 C         -2.2930868865       -0.0585644450        0.0654016732
 C         -0.9251918477       -0.6114633739        0.4806302610
 N          0.0220622860        0.3150759943        0.7168721220
 C          1.4002785334       -0.0392203386        0.9338372541
 C          2.2626394167        0.1435247546       -0.3018720542
 O          3.4384350245       -0.1418120017       -0.3421388407
 N         -2.7514888708        1.1008953241        0.8090021507
 O         -0.7183194789       -1.8149053778        0.6045104019
 O          1.6029948638        0.6588847967       -1.3202596403
 H         -2.7261436487        0.9229581377        1.8050073844
 H         -2.1822968668        1.9147459841        0.6084832241
 C         -2.2366286637        0.2657188880       -1.4296769462
 H         -3.0154821599       -0.8664734399        0.2310459851
 H         -0.1666145598        1.2760129913        0.4696994213
 H          1.4354124175       -1.0967505232        1.2155994246
 H          1.8330106593        0.5492349144        1.7473253234
 H          2.1601540503        0.7689442938       -2.1160007178
 H         -3.2060707383        0.6330235483       -1.7514481609
 H         -1.4849440441        1.0259378912       -1.6287641991
 H         -1.9866751348       -0.6286253011       -1.9937574981
  20
  -33.879517049999997        2.2053654491295774E-004 !
 C         -2.2856688930       -0.0890150557        0.0243793591
 C         -0.9095555493       -0.5963651205        0.4707680642
 N          0.0121466535        0.3621333709        0.6821028008
 C          1.3935089862        0.0480456274        0.9384788530
 C          2.2640077254        0.1409476911       -0.3020248374
 O          3.4469104050       -0.1164780604       -0.3071700813
 N         -2.8353173590        0.9765097036        0.8460340038
 O         -0.6784545277       -1.7874963078        0.6560782020
 O          1.6008604251        0.5435614163       -1.3672706522
 H         -2.8844348464        0.6889452604        1.8154407409
 H         -2.2660804657        1.8129538561        0.7885009211
 C         -2.1981347290        0.3621637239       -1.4351886502
 H         -2.9671695824       -0.9445936856        0.0956737900
 H         -0.1895898486        1.3028922928        0.3754732320
 H          1.4422715197       -0.9827018326        1.3047660866
 H          1.8090638740        0.7075732547        1.7046015444
 H          2.1602772344        0.5947691155       -2.1671911907
 H         -3.1818062454        0.6763540966       -1.7696396993
 H         -1.5077774770        1.1947904596       -1.5434309437
 H         -1.8541991054       -0.4595025750       -2.0573139950
  20
  -33.879198529999996        1.5743413759568043E-004 !
 C         -2.2097526176        0.0950598185        0.5292019014
 C         -0.9178592745       -0.6525336098        0.1777563400
 N         -0.0747782752        0.0004944399       -0.6406129416
 C          1.2339188808       -0.5030840120       -0.9625894727
 C          2.3419872380        0.1998734521       -0.2007517488
 O          3.5141128254       -0.0780881992       -0.3178332853
 N         -2.0855737636        1.5334240570        0.6702483486
 O         -0.6949625686       -1.7880144763        0.5876044773
 O          1.8963221718        1.1537592580        0.5940529869
 H         -1.3041139928        1.7752501492        1.2668648136
 H         -1.9704296591        1.9813694319       -0.2311221451
 C         -3.2605933856       -0.2377151836       -0.5324520643
 H         -2.5386499807       -0.3090247647        1.4943668052
 H         -0.2668574053        0.9647000830       -0.8729051639
 H          1.4384019158       -0.4156239174       -2.0329902073
 H          1.2596691272       -1.5642972432       -0.6922976342
 H          2.6116385126        1.5996854891        1.0894165066
 H         -2.9414358753        0.1218865540       -1.5078089451
 H         -3.4062642728       -1.3129782007       -0.5847728485
 H         -4.1996478945        0.2390908140       -0.2692961021
  20
  -33.879196739999998        1.5713621301847953E-004 !
 C         -2.2067324004        0.0940679091        0.5362829041
 C         -0.9177083305       -0.6493993929        0.1657283959
 N         -0.0721598842        0.0192535813       -0.6372446023
 C          1.2339698299       -0.4824665116       -0.9723369390
 C          2.3460220221        0.1993906724       -0.1973295825
 O          3.5166337538       -0.0817783722       -0.3213384355
 N         -2.0895276282        1.5333315623        0.6706281831
 O         -0.7001510792       -1.7957261898        0.5475356936
 O          1.9057526631        1.1390304449        0.6171209088
 H         -1.3006389055        1.7828128184        1.2541572195
 H         -1.9935330691        1.9789958305       -0.2340936237
 C         -3.2727237721       -0.2486703725       -0.5070994529
 H         -2.5180656124       -0.3091992059        1.5076339152
 H         -0.2590650623        0.9903420815       -0.8440976252
 H          1.4370617190       -0.3722559195       -2.0409215317
 H          1.2559184337       -1.5494891972       -0.7255997811
 H          2.6235991682        1.5714929330        1.1207690525
 H         -3.4114156071       -1.3251214675       -0.5542610288
 H         -4.2106791801        0.2224266231       -0.2301219116
 H         -2.9715901924        0.1105251867       -1.4883795598
  20
  -33.879194960000000        1.5684051189614851E-004 !
 C         -2.2033018471        0.0923935179        0.5397723274
 C         -0.9149590576       -0.6474549717        0.1597178405
 N         -0.0731264534        0.0266690831       -0.6427354296
 C          1.2332956839       -0.4707979097       -0.9829886631
 C          2.3443712451        0.1994566010       -0.1964312526
 O          3.5154180873       -0.0778005600       -0.3249089081
 N         -2.0893803031        1.5318562229        0.6741893590
 O         -0.6947756638       -1.7956622684        0.5341419099
 O          1.9024272022        1.1239452752        0.6343508615
 H         -1.2971749562        1.7833644586        1.2523357312
 H         -2.0014653854        1.9784337073       -0.2308721339
 C         -3.2756365015       -0.2530466456       -0.4961850384
 H         -2.5065047246       -0.3123386355        1.5130852397
 H         -0.2614389196        0.9990580370       -0.8419886485
 H          1.4378407646       -0.3458140361       -2.0495682640
 H          1.2547492700       -1.5410386561       -0.7507484240
 H          2.6194767521        1.5480260572        1.1461321394
 H         -4.2129916211        0.2148986883       -0.2120368330
 H         -2.9828105747        0.1076858703       -1.4793883260
 H         -3.4111744080       -1.3298955338       -0.5430604830
  20
  -33.878748889999997        9.7826985886265226E-005 !
 C         -2.1245678664        0.2774289737       -0.3336050962
 C         -0.8023879072       -0.3419526618        0.1194339488
 N          0.0323617722        0.4537003411        0.8087800084
 C          1.3920267940        0.0407219080        1.0516923996
 C          2.2386249832        0.1734128074       -0.2033888158
 O          1.8166601539        0.5895598625       -1.2589454555
 N         -3.1242391753       -0.7807732183       -0.4259662979
 O         -0.5284097483       -1.5113157575       -0.1380452227
 O          3.4811258191       -0.2166401110       -0.0089872642
 H         -3.7521734346       -0.6170288189       -1.2028616994
 H         -2.6508531291       -1.6662811739       -0.5827095976
 C         -2.6473942266        1.3879494060        0.5806547929
 H         -1.8878480611        0.7116992874       -1.3246730734
 H         -0.1705813575        1.4395822749        0.8612972750
 H          1.3948673130       -1.0163559501        1.3351597658
 H          1.8326615483        0.6281096759        1.8567386048
 H          4.0390463938       -0.1481717328       -0.8093973936
 H         -2.0572558875        2.2947503989        0.4896062740
 H         -3.6679300332        1.6171753720        0.2873035750
 H         -2.6587962568        1.0500657808        1.6118708361
  20
  -33.878733410000002        9.6237549806953864E-005 !
 C         -2.1399681122        0.1956373341       -0.3541971512
 C         -0.8067551000       -0.3495909218        0.1576981180
 N          0.0310516964        0.5259024526        0.7360142560
 C          1.3930548272        0.1486113837        1.0202380878
 C          2.2409923745        0.1617434374       -0.2404763062
 O          1.8222711727        0.4815783294       -1.3303643111
 N         -3.1601462697       -0.8249022972       -0.1377650588
 O         -0.5303404996       -1.5413386961        0.0423444450
 O          3.4817783344       -0.2140658163       -0.0102093701
 H         -3.8748515138       -0.7730299347       -0.8534279460
 H         -2.7249711813       -1.7414304676       -0.1911823267
 C         -2.5899686075        1.5067095305        0.2907033743
 H         -1.9527945362        0.3740873382       -1.4322855899
 H         -0.1758415921        1.5104391818        0.6749186699
 H          1.4017747179       -0.8745920703        1.4084411994
 H          1.8283280705        0.8166494533        1.7632098134
 H          4.0391132253       -0.2199249310       -0.8138535945
 H         -2.5712516503        1.4200772703        1.3723058474
 H         -1.9753459618        2.3413537841       -0.0333901599
 H         -3.6138146611        1.7034624709       -0.0152405244
  20
  -33.878723540000003        9.5237638786092974E-005 !
 C         -2.1549864815        0.1807834236       -0.3516572167
 C         -0.8179588458       -0.3545996919        0.1612629696
 N          0.0321276838        0.5345282350        0.6984507214
 C          1.3904545806        0.1573603694        0.9984193386
 C          2.2563109178        0.1625419977       -0.2497652267
 O          1.8534104213        0.4650428211       -1.3504024434
 N         -3.1791474438       -0.8221331599       -0.0776669169
 O         -0.5507439405       -1.5516528869        0.0840150711
 O          3.4961964369       -0.2003471612        0.0052275848
 H         -3.9043967605       -0.7942252683       -0.7839756129
 H         -2.7518911321       -1.7436086606       -0.0994868330
 C         -2.5851297256        1.5200969945        0.2472322818
 H         -1.9850901911        0.3142262755       -1.4389633084
 H         -0.1688322362        1.5182188425        0.6087680575
 H          1.3913215348       -0.8643288234        1.3912910417
 H          1.8180875181        0.8272995408        1.7442716048
 H          4.0661279540       -0.2127092326       -0.7891784652
 H         -3.6120916644        1.7128933041       -0.0506839917
 H         -2.5506269749        1.4766996023        1.3310423273
 H         -1.9691930306        2.3361022018       -0.1192113617
  20
  -33.878671060000002        9.0092882305916117E-005 !
 C         -2.1932139755       -0.1363719627        0.0825161634
 C         -0.6770684298       -0.2941318626        0.2294764243
 N         -0.0187175660        0.7029358144        0.8290868216
 C          1.4154028891        0.6323268783        1.0055787654
 C          2.0553892764       -0.1431486048       -0.1400481916
 O          2.8380396386       -1.0537593556        0.0170114673
 N         -2.8446753215        0.7347845146        1.0374043178
 O         -0.0794514169       -1.2741309799       -0.2165503179
 O          1.7911033417        0.4012550804       -1.3165053320
 H         -2.6168084020        0.4795904798        1.9893064246
 H         -2.6032806228        1.7047389408        0.8744265434
 C         -2.4648356356        0.3560042160       -1.3422384275
 H         -2.6168482448       -1.1414592462        0.1966223048
 H         -0.5105250267        1.5019792932        1.2013120082
 H          1.6788538594        0.1272548010        1.9404363804
 H          1.8275733995        1.6426471732        0.9935631793
 H          2.2215841745       -0.0746516055       -2.0515425158
 H         -2.0109438440        1.3319989607       -1.4976755747
 H         -2.0457926160       -0.3431821760       -2.0601753120
 H         -3.5364541602        0.4328246212       -1.4962196532
  20
  -33.878670909999997        9.0078583066797400E-005 !
 C         -2.1931769878       -0.1368372672        0.0815606368
 C         -0.6771024626       -0.2941959199        0.2295100728
 N         -0.0191128460        0.7041528851        0.8274159207
 C          1.4149757953        0.6339125024        1.0043898253
 C          2.0555851524       -0.1429067170       -0.1399993921
 O          2.8386583775       -1.0528922959        0.0184824293
 N         -2.8456797152        0.7317116822        1.0381370515
 O         -0.0791212581       -1.2749608005       -0.2143877596
 O          1.7909431024        0.3994403876       -1.3173165015
 H         -2.6175845361        0.4748133109        1.9895326909
 H         -2.6051322825        1.7022381919        0.8773101146
 C         -2.4639822242        0.3587018269       -1.3422375631
 H         -2.6163597639       -1.1424000493        0.1930602042
 H         -0.5109744976        1.5045050579        1.1967163373
 H          1.6781396613        0.1300623328        1.9399663886
 H          1.8270583698        1.6442122544        0.9913023318
 H          2.2218255060       -0.0773486416       -2.0515434397
 H         -3.5355483251        0.4340466388       -1.4972554431
 H         -2.0116468284        1.3358555273       -1.4947014219
 H         -2.0429364162       -0.3378548386       -2.0615361091
  20
  -33.877738770000001        3.3592293985995866E-005 !
 C         -2.2793340765       -0.1748722843        0.0273429711
 C         -0.8827929396       -0.2820797891        0.6436920199
 N          0.0513133298       -0.9122497045       -0.0836424876
 C          1.4252892301       -0.9766713844        0.3440598370
 C          2.3011248932        0.0739208999       -0.3159924577
 O          3.4748743542        0.2211303644       -0.0574314416
 N         -2.8793942684        1.0717994579        0.4927465180
 O         -0.6656834435        0.1304687223        1.7809902277
 O          1.6537760802        0.7970187885       -1.2059532316
 H         -3.8849373751        0.9787802360        0.5679497956
 H         -2.5121951392        1.2923701441        1.4137403468
 C         -2.3032121752       -0.2055948536       -1.5014690459
 H         -2.8198027307       -1.0619069780        0.4115947567
 H         -0.1359427304       -1.1136913271       -1.0538327027
 H          1.8505152959       -1.9619759726        0.1377719502
 H          1.4555702494       -0.8053077638        1.4249256558
 H          2.2127633823        1.4816040192       -1.6234297769
 H         -3.3016794381        0.0657325723       -1.8331102041
 H         -1.6065143389        0.5244007386       -1.9030585816
 H         -2.0788060191       -1.1973282913       -1.8826529350
  20
  -33.877727059999998        3.3178604765601380E-005 !
 C         -2.2805707290       -0.1845114796        0.0184390724
 C         -0.8890568971       -0.2789611164        0.6481044541
 N          0.0558857905       -0.9009355060       -0.0719710627
 C          1.4273142266       -0.9549384155        0.3647803729
 C          2.3091762520        0.0744582448       -0.3194701466
 O          3.4834971476        0.2207460964       -0.0629566550
 N         -2.9106676680        1.0393539492        0.5033654735
 O         -0.6845700536        0.1355782833        1.7869514928
 O          1.6676528641        0.7798761851       -1.2278357323
 H         -3.9140332441        0.9228164981        0.5730247468
 H         -2.5511564646        1.2520631050        1.4293939647
 C         -2.2834540120       -0.1813226954       -1.5112874797
 H         -2.8085742064       -1.0900614968        0.3754307596
 H         -0.1241379288       -1.1090250676       -1.0420932143
 H          1.8534345683       -1.9460679419        0.1896466739
 H          1.4508045170       -0.7534672819        1.4407170915
 H          2.2320982861        1.4499519354       -1.6615307847
 H         -1.5837449841        0.5594447162       -1.8870822246
 H         -2.0498442339       -1.1633286154       -1.9117124540
 H         -3.2783127116        0.0941980776       -1.8501734791
  20
  -33.877042520000003        1.6079232566215929E-005 !
 C         -2.1871676832        0.0464943084        0.2292861888
 C         -0.6687652866        0.1603417245        0.3521515184
 N         -0.0130620159       -0.9085108652        0.8100569587
 C          1.4214461358       -0.8559301898        0.9950021098
 C          2.0685663661        0.0093584945       -0.0796845966
 O          2.8816257249        0.8756792456        0.1522754162
 N         -2.6662263311        1.0635935902       -0.7011769274
 O         -0.0729767071        1.1988750280        0.0611516305
 O          1.7468113716       -0.3882822538       -1.2977327515
 H         -3.4793456647        1.5410786995       -0.3348817838
 H         -1.9342361855        1.7543766213       -0.8421082296
 C         -2.6445735768       -1.3358608839       -0.2509139938
 H         -2.5736403189        0.2148164880        1.2494400206
 H         -0.4992261960       -1.7623835164        1.0318035026
 H          1.8306402960       -1.8628255630        0.9036544822
 H          1.6840341902       -0.4302048323        1.9688055073
 H          2.1677445687        0.1505008723       -1.9941685059
 H         -2.0766242136       -1.6349536188       -1.1263639069
 H         -2.5491598104       -2.0840124313        0.5296845474
 H         -3.6910245509       -1.2668460724       -0.5329129214
  20
  -33.876043359999997        5.5857716002990884E-006 !
 C         -2.1961930511        0.2997093372        0.2488525919
 C         -0.9460769335       -0.5816618687        0.2533984455
 N          0.0974965799       -0.0389143469        0.9151114142
 C          1.4353798538       -0.5591134219        0.7780430766
 C          2.2801809982        0.3579999225       -0.0849258929
 O          1.8846441513        1.4182980620       -0.5175204758
 N         -2.0316237324        1.2463818855       -0.8523655146
 O         -0.8856535852       -1.6790668719       -0.2787986377
 O          3.4883447039       -0.1177605619       -0.2934418746
 H         -2.7861776715        1.9222168211       -0.8412385869
 H         -1.1517618347        1.7454969580       -0.7812669066
 C         -3.4489280632       -0.5384524003        0.0209835540
 H         -2.2651951235        0.7975366822        1.2348110918
 H          0.0312240978        0.9194718486        1.2269518009
 H          1.3688597572       -1.5412959475        0.3010841979
 H          1.9161863466       -0.6726789381        1.7533114121
 H          4.0447613172        0.4647994406       -0.8487182252
 H         -4.3220441094        0.1033671640       -0.0507512219
 H         -3.3393650595       -1.0986956424       -0.9029646164
 H         -3.5818326178       -1.2385553051        0.8408233777
